     Program PWSCF v.7.3.1 starts on 25Mar2025 at  1:13:11

     Waiting for input...
     Reading input from standard input
Warning: card &CELL ignored
Warning: card   CELL_DOFREE = 'ALL' ignored
Warning: card / ignored

     Current dimensions of program PWSCF are:
     Max number of different atomic species (ntypx) = 10
     Max number of k-points (npk) =  40000
     Max angular momentum in pseudopotentials (lmaxx) =  4
     Message from routine input:
     WARNING: "startingwfc" set to atomic+random may spoil restart
     Message from routine input:
     WARNING: "startingpot" set to atomic may spoil restart
     file O.pbe-n-kjpaw_psl.0.1.UPF: wavefunction(s)  2P renormalized

     R & G space division:  proc/nbgrp/npool/nimage =      34
     Subspace diagonalization in iterative solution of the eigenvalue problem:
     one sub-group per band group will be used

     Using Slab Decomposition

     bravais-lattice index     =            0
     lattice parameter (alat)  =      20.9009  a.u.
     unit-cell volume          =   16846.7507 (a.u.)^3
     number of atoms/cell      =           67
     number of atomic types    =            3
     number of electrons       =      1288.00
     number of Kohn-Sham states=          773
     kinetic-energy cutoff     =      30.0000  Ry
     charge density cutoff     =     120.0000  Ry
     scf convergence threshold =      7.3E-07
     mixing beta               =       0.7000
     number of iterations used =            8  plain     mixing
     energy convergence thresh.=      1.0E-05
     force convergence thresh. =      5.0E-04
     Exchange-correlation= SLA  PW   PBX  PBC
                           (   1   4   3   4   0   0   0)
     nstep                     =          100

     celldm(1)=  20.900943  celldm(2)=   0.000000  celldm(3)=   0.000000
     celldm(4)=   0.000000  celldm(5)=   0.000000  celldm(6)=   0.000000

     crystal axes: (cart. coord. in units of alat)
               a(1) = (   1.000000   0.000000   0.000000 )
               a(2) = (  -0.223489   0.918700   0.000000 )
               a(3) = (  -4.200249  -1.021781   2.008375 )

     reciprocal axes: (cart. coord. in units 2 pi/alat)
               b(1) = (  1.000000  0.243267  2.215131 )
               b(2) = ( -0.000000  1.088495  0.553783 )
               b(3) = (  0.000000 -0.000000  0.497915 )

     PseudoPot. # 1 for Zn read from file:
     /home/ys/qepseudo/SSSP_1.3.0_PBE_efficiency/Zn_pbe_v1.uspp.F.UPF
     MD5 check sum: df62231357ef9e81f77b2b3087fa5675
     Pseudo is Ultrasoft, Zval = 20.0
     Generated by new atomic code, or converted to UPF format
     Using radial grid of  943 points,  6 beta functions with:
                l(1) =   0
                l(2) =   0
                l(3) =   1
                l(4) =   1
                l(5) =   2
                l(6) =   2
     Q(r) pseudized with  8 coefficients,  rinner =    1.100   1.100   1.100
                                                       1.100   1.100

     PseudoPot. # 2 for H  read from file:
     /home/ys/qepseudo/SSSP_1.3.0_PBE_efficiency/H.pbe-rrkjus_psl.1.0.0.UPF
     MD5 check sum: f52b6d4d1c606e5624b1dc7b2218f220
     Pseudo is Ultrasoft, Zval =  1.0
     Generated using "atomic" code by A. Dal Corso  v.5.1
     Using radial grid of  929 points,  2 beta functions with:
                l(1) =   0
                l(2) =   0
     Q(r) pseudized with 0 coefficients

     PseudoPot. # 3 for O  read from file:
     /home/ys/qepseudo/SSSP_1.3.0_PBE_efficiency/O.pbe-n-kjpaw_psl.0.1.UPF
     MD5 check sum: 0234752ac141de4415c5fc33072bef88
     Pseudo is Projector augmented-wave + core cor, Zval =  6.0
     Generated using "atomic" code by A. Dal Corso  v.5.0.99 svn rev. 10869
     Shape of augmentation charge: BESSEL
     Using radial grid of 1095 points,  4 beta functions with:
                l(1) =   0
                l(2) =   0
                l(3) =   1
                l(4) =   1
     Q(r) pseudized with 0 coefficients

     atomic species   valence    mass     pseudopotential
     Zn               20.00    65.38000     Zn( 1.00)
     H                 1.00     1.00800     H ( 1.00)
     O                 6.00    16.00000     O ( 1.00)

     No symmetry found

                                    s                        frac. trans.

      isym =  1     identity

 cryst.   s( 1) = (     1          0          0      )
                  (     0          1          0      )
                  (     0          0          1      )

 cart.    s( 1) = (  1.0000000  0.0000000  0.0000000 )
                  (  0.0000000  1.0000000  0.0000000 )
                  (  0.0000000  0.0000000  1.0000000 )

   Cartesian axes

     site n.     atom                  positions (alat units)
         1        Zn     tau(   1) = (  -0.0970639   0.0980210   0.1082939  )
         2        Zn     tau(   2) = (  -0.2088085   0.5573710   0.1082939  )
         3        Zn     tau(   3) = (  -0.4853192   0.0035714   0.2939406  )
         4        Zn     tau(   4) = (  -0.5970639   0.4629214   0.2939406  )
         5        Zn     tau(   5) = (  -0.8551296  -0.0882525   0.4890146  )
         6        Zn     tau(   6) = (  -0.9674382   0.3714473   0.4877292  )
         7        Zn     tau(   7) = (  -1.2131724  -0.1752839   0.6879483  )
         8        Zn     tau(   8) = (  -1.3173540   0.2859884   0.6874372  )
         9        Zn     tau(   9) = (  -0.1529362   0.3276960   0.1082939  )
        10        Zn     tau(  10) = (  -0.2646808   0.7870460   0.1082939  )
        11        Zn     tau(  11) = (  -0.5411915   0.2332464   0.2939406  )
        12        Zn     tau(  12) = (  -0.6529362   0.6925964   0.2939406  )
        13        Zn     tau(  13) = (  -0.9111612   0.1415108   0.4871026  )
        14        Zn     tau(  14) = (  -1.0232162   0.6012325   0.4883100  )
        15        Zn     tau(  15) = (  -1.2665792   0.0553404   0.6880703  )
        16        Zn     tau(  16) = (  -1.3765396   0.5148756   0.6874094  )
        17        Zn     tau(  17) = (   0.4029361   0.0980210   0.1082939  )
        18        Zn     tau(  18) = (   0.2911915   0.5573710   0.1082939  )
        19        Zn     tau(  19) = (   0.0146808   0.0035714   0.2939406  )
        20        Zn     tau(  20) = (  -0.0970639   0.4629214   0.2939406  )
        21        Zn     tau(  21) = (  -0.3558316  -0.0879851   0.4954040  )
        22        Zn     tau(  22) = (  -0.4703754   0.3696733   0.5028588  )
        23        Zn     tau(  23) = (  -0.7223088  -0.1768393   0.6886109  )
        24        Zn     tau(  24) = (  -0.8373491   0.2820498   0.6855383  )
        25        Zn     tau(  25) = (   0.3470638   0.3276960   0.1082939  )
        26        Zn     tau(  26) = (   0.2353192   0.7870460   0.1082939  )
        27        Zn     tau(  27) = (  -0.0411915   0.2332464   0.2939406  )
        28        Zn     tau(  28) = (  -0.1529362   0.6925964   0.2939406  )
        29        Zn     tau(  29) = (  -0.4145708   0.1415322   0.5015557  )
        30        Zn     tau(  30) = (  -0.5232667   0.6005052   0.4961357  )
        31        Zn     tau(  31) = (  -0.7810141   0.0525453   0.6856536  )
        32        Zn     tau(  32) = (  -0.8902960   0.5132032   0.6890318  )
        33        Zn     tau(  33) = (   0.1529362   0.0372043   0.0773528  )
        34        Zn     tau(  34) = (   0.0411915   0.4965543   0.0773528  )
        35        Zn     tau(  35) = (  -0.2353192  -0.0572454   0.2629995  )
        36        Zn     tau(  36) = (  -0.3470638   0.4021046   0.2629995  )
        37        Zn     tau(  37) = (  -0.6090394  -0.1488711   0.4468343  )
        38        Zn     tau(  38) = (  -0.7204202   0.3099103   0.4469033  )
        39        Zn     tau(  39) = (  -0.9759457  -0.2390184   0.6569602  )
        40        Zn     tau(  40) = (  -1.0856124   0.2195899   0.6566994  )
        41        Zn     tau(  41) = (   0.0970639   0.2668793   0.0773528  )
        42        Zn     tau(  42) = (  -0.0146808   0.7262293   0.0773528  )
        43        Zn     tau(  43) = (  -0.2911915   0.1724296   0.2629995  )
        44        Zn     tau(  44) = (  -0.4029361   0.6317796   0.2629995  )
        45        Zn     tau(  45) = (  -0.6645006   0.0812920   0.4467002  )
        46        Zn     tau(  46) = (  -0.7771202   0.5404573   0.4464218  )
        47        Zn     tau(  47) = (  -1.0329685  -0.0101624   0.6562499  )
        48        Zn     tau(  48) = (  -1.1407101   0.4506591   0.6574815  )
        49        Zn     tau(  49) = (   0.6529362   0.0372043   0.0773528  )
        50        Zn     tau(  50) = (   0.5411915   0.4965543   0.0773528  )
        51        Zn     tau(  51) = (   0.2646808  -0.0572454   0.2629995  )
        52        Zn     tau(  52) = (   0.1529362   0.4021046   0.2629995  )
        53        Zn     tau(  53) = (  -0.1084636  -0.1491981   0.4474074  )
        54        Zn     tau(  54) = (  -0.2213877   0.3102031   0.4473701  )
        55        Zn     tau(  55) = (  -0.4862469  -0.2410344   0.6525141  )
        56        Zn     tau(  56) = (  -0.5989190   0.2178516   0.6668442  )
        57        Zn     tau(  57) = (   0.5970639   0.2668793   0.0773528  )
        58        Zn     tau(  58) = (   0.4853192   0.7262293   0.0773528  )
        59        Zn     tau(  59) = (   0.2088085   0.1724296   0.2629995  )
        60        Zn     tau(  60) = (   0.0970639   0.6317796   0.2629995  )
        61        Zn     tau(  61) = (  -0.1651312   0.0810953   0.4477352  )
        62        Zn     tau(  62) = (  -0.2771599   0.5394340   0.4476073  )
        63        Zn     tau(  63) = (  -0.5449118  -0.0133228   0.6502642  )
        64        Zn     tau(  64) = (  -0.6595833   0.4477809   0.6474393  )
        65        O      tau(  65) = (  -0.5595518   0.2379019   0.8828621  )
        66        H      tau(  66) = (  -0.6199150   0.2991579   0.9056684  )
        67        H      tau(  67) = (  -0.5910338   0.1620055   0.9168906  )

   Crystallographic axes

     site n.     atom                  positions (cryst. coord.)
         1        Zn     tau(   1) = (  0.1666667  0.1666667  0.0539212  )
         2        Zn     tau(   2) = (  0.1666667  0.6666667  0.0539212  )
         3        Zn     tau(   3) = (  0.1666667  0.1666667  0.1463574  )
         4        Zn     tau(   4) = (  0.1666667  0.6666667  0.1463574  )
         5        Zn     tau(   5) = (  0.2066331  0.1747455  0.2434877  )
         6        Zn     tau(   6) = (  0.2033069  0.6744145  0.2428477  )
         7        Zn     tau(   7) = (  0.2680827  0.1901783  0.3425398  )
         8        Zn     tau(   8) = (  0.2749812  0.6919878  0.3422853  )
         9        Zn     tau(   9) = (  0.1666667  0.4166667  0.0539212  )
        10        Zn     tau(  10) = (  0.1666667  0.9166667  0.0539212  )
        11        Zn     tau(  11) = (  0.1666667  0.4166667  0.1463574  )
        12        Zn     tau(  12) = (  0.1666667  0.9166667  0.1463574  )
        13        Zn     tau(  13) = (  0.2022600  0.4237827  0.2425357  )
        14        Zn     tau(  14) = (  0.2047146  0.9248561  0.2431369  )
        15        Zn     tau(  15) = (  0.2710495  0.4412793  0.3426005  )
[...]
     atom   43 type  1   force =     0.00000000    0.00000000    0.00000000
     atom   44 type  1   force =     0.00000000    0.00000000    0.00000000
     atom   45 type  1   force =     0.00000000    0.00000000    0.00000000
     atom   46 type  1   force =     0.00000000    0.00000000    0.00000000
     atom   47 type  1   force =     0.00000000    0.00000000    0.00000000
     atom   48 type  1   force =     0.00000000    0.00000000    0.00000000
     atom   49 type  1   force =     0.00000000    0.00000000    0.00000000
     atom   50 type  1   force =     0.00000000    0.00000000    0.00000000
     atom   51 type  1   force =     0.00000000    0.00000000    0.00000000
     atom   52 type  1   force =     0.00000000    0.00000000    0.00000000
     atom   53 type  1   force =     0.00000000    0.00000000    0.00000000
     atom   54 type  1   force =     0.00000000    0.00000000    0.00000000
     atom   55 type  1   force =     0.00000000    0.00000000    0.00000000
     atom   56 type  1   force =     0.00000000    0.00000000    0.00000000
     atom   57 type  1   force =     0.00000000    0.00000000    0.00000000
     atom   58 type  1   force =     0.00000000    0.00000000    0.00000000
     atom   59 type  1   force =     0.00000000    0.00000000    0.00000000
     atom   60 type  1   force =     0.00000000    0.00000000    0.00000000
     atom   61 type  1   force =     0.00000000    0.00000000    0.00000000
     atom   62 type  1   force =     0.00000000    0.00000000    0.00000000
     atom   63 type  1   force =     0.00000000    0.00000000    0.00000000
     atom   64 type  1   force =     0.00000000    0.00000000    0.00000000
     atom   65 type  3   force =     0.00000000    0.00000000    0.00000000
     atom   66 type  2   force =     0.00000000    0.00000000    0.00000000
     atom   67 type  2   force =     0.00000000    0.00000000    0.00000000
     The SCF correction term to forces
     atom    1 type  1   force =    -0.00000000   -0.00000000   -0.00000000
     atom    2 type  1   force =    -0.00000000   -0.00000000   -0.00000000
     atom    3 type  1   force =     0.00000000   -0.00000000   -0.00000000
     atom    4 type  1   force =     0.00000000    0.00000000   -0.00000000
     atom    5 type  1   force =    -0.00000805   -0.00001876    0.00003786
     atom    6 type  1   force =     0.00001599    0.00001831    0.00006438
     atom    7 type  1   force =    -0.00000781   -0.00001387    0.00000669
     atom    8 type  1   force =     0.00001389    0.00001155    0.00004769
     atom    9 type  1   force =    -0.00000000   -0.00000000   -0.00000000
     atom   10 type  1   force =    -0.00000000   -0.00000000   -0.00000000
     atom   11 type  1   force =     0.00000000    0.00000000   -0.00000000
     atom   12 type  1   force =     0.00000000    0.00000000   -0.00000000
     atom   13 type  1   force =    -0.00001336    0.00000578    0.00003890
     atom   14 type  1   force =     0.00002138   -0.00000061    0.00005928
     atom   15 type  1   force =     0.00002488   -0.00003080    0.00002844
     atom   16 type  1   force =     0.00000599    0.00004038    0.00001949
     atom   17 type  1   force =     0.00000000    0.00000000    0.00000000
     atom   18 type  1   force =     0.00000000    0.00000000    0.00000000
     atom   19 type  1   force =    -0.00000000   -0.00000000   -0.00000000
     atom   20 type  1   force =    -0.00000000   -0.00000000    0.00000000
     atom   21 type  1   force =     0.00000169   -0.00004998   -0.00003403
     atom   22 type  1   force =    -0.00003147    0.00003409   -0.00001388
     atom   23 type  1   force =    -0.00000143   -0.00004532    0.00001744
     atom   24 type  1   force =    -0.00002730    0.00003227    0.00000532
     atom   25 type  1   force =     0.00000000    0.00000000    0.00000000
     atom   26 type  1   force =     0.00000000    0.00000000    0.00000000
     atom   27 type  1   force =    -0.00000000   -0.00000000   -0.00000000
     atom   28 type  1   force =    -0.00000000    0.00000000   -0.00000000
     atom   29 type  1   force =    -0.00000442   -0.00003033   -0.00003451
     atom   30 type  1   force =    -0.00002896    0.00002950   -0.00001074
     atom   31 type  1   force =    -0.00002007   -0.00000340    0.00002506
     atom   32 type  1   force =    -0.00000807    0.00000010    0.00000876
     atom   33 type  1   force =    -0.00000000    0.00000000   -0.00000000
     atom   34 type  1   force =     0.00000000   -0.00000000   -0.00000000
     atom   35 type  1   force =    -0.00000000   -0.00000000   -0.00000000
     atom   36 type  1   force =    -0.00000000    0.00000000   -0.00000000
     atom   37 type  1   force =     0.00007343   -0.00002442    0.00000423
     atom   38 type  1   force =     0.00002914    0.00004277   -0.00000443
     atom   39 type  1   force =    -0.00001734   -0.00001431    0.00005088
     atom   40 type  1   force =     0.00000687    0.00001080    0.00005384
     atom   41 type  1   force =    -0.00000000   -0.00000000   -0.00000000
     atom   42 type  1   force =    -0.00000000    0.00000000   -0.00000000
     atom   43 type  1   force =    -0.00000000   -0.00000000   -0.00000000
     atom   44 type  1   force =    -0.00000000    0.00000000   -0.00000000
     atom   45 type  1   force =     0.00004166    0.00000458   -0.00002174
     atom   46 type  1   force =     0.00005734    0.00002711    0.00001611
     atom   47 type  1   force =    -0.00002694   -0.00001419    0.00004618
     atom   48 type  1   force =     0.00001622    0.00001359    0.00006272
     atom   49 type  1   force =     0.00000000   -0.00000000    0.00000000
     atom   50 type  1   force =     0.00000000    0.00000000    0.00000000
     atom   51 type  1   force =     0.00000000    0.00000000    0.00000000
     atom   52 type  1   force =     0.00000000    0.00000000    0.00000000
     atom   53 type  1   force =    -0.00006403   -0.00001212   -0.00000259
     atom   54 type  1   force =    -0.00001711   -0.00000890    0.00001514
     atom   55 type  1   force =     0.00002847   -0.00001790   -0.00001889
     atom   56 type  1   force =     0.00001124    0.00001180    0.00003606
     atom   57 type  1   force =     0.00000000   -0.00000000   -0.00000000
     atom   58 type  1   force =     0.00000000    0.00000000    0.00000000
     atom   59 type  1   force =     0.00000000    0.00000000   -0.00000000
     atom   60 type  1   force =     0.00000000    0.00000000    0.00000000
     atom   61 type  1   force =    -0.00003090   -0.00004111   -0.00000676
     atom   62 type  1   force =    -0.00004950    0.00002014    0.00001917
     atom   63 type  1   force =     0.00002329   -0.00003049    0.00001033
     atom   64 type  1   force =    -0.00001323    0.00004241   -0.00001752
     atom   65 type  3   force =     0.00000678   -0.00000952   -0.00000088
     atom   66 type  2   force =    -0.00000179    0.00000179    0.00000088
     atom   67 type  2   force =    -0.00000025   -0.00000206    0.00000117

     Total force =     0.001543     Total SCF correction =     0.000286
     SCF correction compared to forces is large: reduce conv_thr to get better values

     Computing stress (Cartesian axis) and pressure

     negative rho (up, down):  1.370E-02 0.000E+00
          total   stress  (Ry/bohr**3)                   (kbar)     P=     -282.32
  -0.00199293  -0.00003211   0.00002178         -293.17       -4.72        3.20
  -0.00003211  -0.00191308   0.00000425           -4.72     -281.42        0.63
   0.00002178   0.00000425  -0.00185146            3.20        0.63     -272.36

     kinetic stress (kbar)  15196.68      8.11      2.03
                                8.11  15160.55      1.32
                                2.03      1.32  15226.06

     local   stress (kbar)**********   3114.68  -1362.32
                             3114.68**********   -379.90
                            -1362.32   -379.901220891.02

     nonloc. stress (kbar)  -1841.13     -7.63      2.31
                               -7.63  -1815.93      0.27
                                2.31      0.27  -1856.21

     hartree stress (kbar) 637128.67  -1336.56    564.83
                            -1336.56 642309.49    158.28
                              564.83    158.28-568879.36

     exc-cor stress (kbar)  -7563.02     -0.89      0.33
                               -0.89  -7559.61      0.07
                                0.33      0.07  -7566.50

     corecor stress (kbar)     -3.49     -0.00     -0.02
                               -0.00     -3.47     -0.01
                               -0.02     -0.01     -3.64

     ewald   stress (kbar) 563818.72  -1782.44    796.04
                            -1782.44 570738.50    220.59
                              796.04    220.59-658083.73

     hubbard stress (kbar)      0.00      0.00      0.00
                                0.00      0.00      0.00
                                0.00      0.00      0.00

     DFT-D   stress (kbar)      0.00      0.00      0.00
                                0.00      0.00      0.00
                                0.00      0.00      0.00

     XDM     stress (kbar)      0.00      0.00      0.00
                                0.00      0.00      0.00
                                0.00      0.00      0.00

     dft-nl  stress (kbar)      0.00      0.00      0.00
                                0.00      0.00      0.00
                                0.00      0.00      0.00

     TS-vdW  stress (kbar)      0.00      0.00      0.00
                                0.00      0.00      0.00
                                0.00      0.00      0.00

     MDB     stress (kbar)      0.00      0.00      0.00
                                0.00      0.00      0.00
                                0.00      0.00      0.00

     3D-RISM stress (kbar)      0.00      0.00      0.00
                                0.00      0.00      0.00
                                0.00      0.00      0.00

     Energy error            =      7.9E-06 Ry
     Gradient error          =      4.2E-04 Ry/Bohr

     bfgs converged in  70 scf cycles and  69 bfgs steps
     (criteria: energy <  1.0E-05 Ry, force <  5.0E-04 Ry/Bohr)

     End of BFGS Geometry Optimization

     Final energy             =  -29578.9433997702 Ry

     File ./tmp/Zn101_optimized_topsite_H2O.bfgs deleted, as requested
Begin final coordinates

ATOMIC_POSITIONS (angstrom)
Zn              -1.0735556040        1.0841422490        1.1977635440    0   0   0
Zn              -2.3094850350        6.1646922450        1.1977635440    0   0   0
Zn              -5.3677775260        0.0395003770        3.2510723350    0   0   0
Zn              -6.6037069570        5.1200503720        3.2510723350    0   0   0
Zn              -9.4613369373       -0.9754944356        5.4093374841
Zn             -10.7021959782        4.1100849737        5.3967519937
Zn             -13.4186235169       -1.9365965822        7.6173546276
Zn             -14.5682111450        3.1649704711        7.6098877295
Zn              -1.6915203190        3.6244172470        1.1977635440    0   0   0
Zn              -2.9274497510        8.7049672430        1.1977635440    0   0   0
Zn              -5.9857422410        2.5797753750        3.2510723350    0   0   0
Zn              -7.2216716720        7.6603253700        3.2510723350    0   0   0
Zn             -10.0811031095        1.5648819772        5.3876225516
Zn             -11.3209826688        6.6482226080        5.4033617113
Zn             -14.0125673619        0.6105812654        7.6190259100
Zn             -15.2278416417        5.6970380789        7.6097016526
Zn               4.4565957630        1.0841422490        1.1977635440    0   0   0
Zn               3.2206663320        6.1646922450        1.1977635440    0   0   0
Zn               0.1623738410        0.0395003770        3.2510723350    0   0   0
Zn              -1.0735555900        5.1200503720        3.2510723350    0   0   0
Zn              -3.9344830075       -0.9725809260        5.4832522686
Zn              -5.1965047796        4.0915703776        5.5570678511
Zn              -7.9970537656       -1.9577783291        7.6211923883
Zn              -9.2602545604        3.1210911953        7.5848358450
Zn               3.8386310480        3.6244172470        1.1977635440    0   0   0
Zn               2.6027016170        8.7049672430        1.1977635440    0   0   0
Zn              -0.4555908740        2.5797753750        3.2510723350    0   0   0
Zn              -1.6915203050        7.6603253700        3.2510723350    0   0   0
Zn              -4.5788823090        1.5670511530        5.5446258087
Zn              -5.7872309813        6.6429645768        5.4903929155
Zn              -8.6362230599        0.5840830097        7.5866506010
Zn              -9.8556110017        5.6744572267        7.6255598041
Zn               1.6915203330        0.4114908770        0.8555452480    0   0   0
Zn               0.4555909020        5.4920408730        0.8555452480    0   0   0
Zn              -2.6027015890       -0.6331509950        2.9088540390    0   0   0
Zn              -3.8386310200        4.4473990010        2.9088540390    0   0   0
Zn              -6.7380197669       -1.6443529304        4.9410357206
Zn              -7.9684475164        3.4263431644        4.9413710775
Zn             -10.7910046615       -2.6411261358        7.2727093217
Zn             -12.0072897780        2.4310511500        7.2643288519
Zn               1.0735556170        2.9517658750        0.8555452480    0   0   0
Zn              -0.1623738140        8.0323158710        0.8555452480    0   0   0
Zn              -3.2206663040        1.9071240030        2.9088540390    0   0   0
Zn              -4.4565957350        6.9876739990        2.9088540390    0   0   0
Zn              -7.3495075308        0.9010718837        4.9440677537
Zn              -8.5960346145        5.9760344213        4.9345984631
Zn             -11.4228373499       -0.1116863648        7.2585117163
Zn             -12.6144144735        4.9859944853        7.2778155516
Zn               7.2216717000        0.4114908770        0.8555452480    0   0   0
Zn               5.9857422690        5.4920408730        0.8555452480    0   0   0
Zn               2.9274497780       -0.6331509950        2.9088540390    0   0   0
Zn               1.6915203470        4.4473990010        2.9088540390    0   0   0
Zn              -1.2005541630       -1.6483458033        4.9553088990
Zn              -2.4461099764        3.4338031537        4.9492170217
Zn              -5.3847087888       -2.6693351654        7.2183019428
Zn              -6.6265152612        2.4104218031        7.3653217460
Zn               6.6037069850        2.9517658750        0.8555452480    0   0   0
Zn               5.3677775540        8.0323158710        0.8555452480    0   0   0
Zn               2.3094850630        1.9071240030        2.9088540390    0   0   0
Zn               1.0735556320        6.9876739990        2.9088540390    0   0   0
Zn              -1.8272651953        0.8949942100        4.9556395505
Zn              -3.0663960168        5.9679744300        4.9550018536
Zn              -6.0288398062       -0.1491455830        7.1904097007
Zn              -7.2950866935        4.9570217112        7.1588016221
O               -6.1794277805        2.6277330040        9.7554894836
H               -6.8465887703        3.3035379277       10.0123772250
H               -6.5283581276        1.7872179790       10.1288220595
End final coordinates

     Writing all to output data dir ./tmp/Zn101_optimized_topsite_H2O.save/ :
     XML data file, charge density, pseudopotentials, collected wavefunctions

     General routines

     Parallel routines

     PAW routines

   This run was terminated on:   6:38:53  25Mar2025

   JOB DONE.
Note: The following floating-point exceptions are signalling: IEEE_DENORMAL
Note: The following floating-point exceptions are signalling: IEEE_DENORMAL
Note: The following floating-point exceptions are signalling: IEEE_DENORMAL
Note: The following floating-point exceptions are signalling: IEEE_DENORMAL
Note: The following floating-point exceptions are signalling: IEEE_DENORMAL
Note: The following floating-point exceptions are signalling: IEEE_DENORMAL
Note: The following floating-point exceptions are signalling: IEEE_DENORMAL
Note: The following floating-point exceptions are signalling: IEEE_DENORMAL
Note: The following floating-point exceptions are signalling: IEEE_DENORMAL
Note: The following floating-point exceptions are signalling: IEEE_DENORMAL
Note: The following floating-point exceptions are signalling: IEEE_DENORMAL
Note: The following floating-point exceptions are signalling: IEEE_DENORMAL