     Program PWSCF v.7.3.1 starts on 17Mar2025 at 11: 0:49

     Waiting for input...
     Reading input from standard input

     Current dimensions of program PWSCF are:
     Max number of different atomic species (ntypx) = 10
     Max number of k-points (npk) =  40000
     Max angular momentum in pseudopotentials (lmaxx) =  4
     file O.pbe-n-kjpaw_psl.0.1.UPF: wavefunction(s)  2P renormalized

     R & G space division:  proc/nbgrp/npool/nimage =      30
     Subspace diagonalization in iterative solution of the eigenvalue problem:
     one sub-group per band group will be used

     Using Slab Decomposition

     bravais-lattice index     =            0
     lattice parameter (alat)  =      18.4179  a.u.
     unit-cell volume          =    7929.1084 (a.u.)^3
     number of atoms/cell      =           35
     number of atomic types    =            3
     number of electrons       =       648.00
     number of Kohn-Sham states=          389
     kinetic-energy cutoff     =      50.0000  Ry
     charge density cutoff     =     200.0000  Ry
     scf convergence threshold =      7.3E-07
     mixing beta               =       0.7000
     number of iterations used =            8  plain     mixing
     Exchange-correlation= SLA  PW   PBX  PBC
                           (   1   4   3   4   0   0   0)

     celldm(1)=  18.417879  celldm(2)=   0.000000  celldm(3)=   0.000000
     celldm(4)=   0.000000  celldm(5)=   0.000000  celldm(6)=   0.000000

     crystal axes: (cart. coord. in units of alat)
               a(1) = (   1.000000   0.000000   0.000000 )
               a(2) = (   0.000000   0.536481   0.000000 )
               a(3) = (   0.000000  -1.365810   2.365652 )

     reciprocal axes: (cart. coord. in units 2 pi/alat)
               b(1) = (  1.000000  0.000000 -0.000000 )
               b(2) = ( -0.000000  1.863998  1.076180 )
               b(3) = (  0.000000  0.000000  0.422716 )

     PseudoPot. # 1 for Zn read from file:
     /home/ys/qepseudo/SSSP_1.3.0_PBE_efficiency/Zn_pbe_v1.uspp.F.UPF
     MD5 check sum: df62231357ef9e81f77b2b3087fa5675
     Pseudo is Ultrasoft, Zval = 20.0
     Generated by new atomic code, or converted to UPF format
     Using radial grid of  943 points,  6 beta functions with:
                l(1) =   0
                l(2) =   0
                l(3) =   1
                l(4) =   1
                l(5) =   2
                l(6) =   2
     Q(r) pseudized with  8 coefficients,  rinner =    1.100   1.100   1.100
                                                       1.100   1.100

     PseudoPot. # 2 for H  read from file:
     /home/ys/qepseudo/SSSP_1.3.0_PBE_efficiency/H.pbe-rrkjus_psl.1.0.0.UPF
     MD5 check sum: f52b6d4d1c606e5624b1dc7b2218f220
     Pseudo is Ultrasoft, Zval =  1.0
     Generated using "atomic" code by A. Dal Corso  v.5.1
     Using radial grid of  929 points,  2 beta functions with:
                l(1) =   0
                l(2) =   0
     Q(r) pseudized with 0 coefficients

     PseudoPot. # 3 for O  read from file:
     /home/ys/qepseudo/SSSP_1.3.0_PBE_efficiency/O.pbe-n-kjpaw_psl.0.1.UPF
     MD5 check sum: 0234752ac141de4415c5fc33072bef88
     Pseudo is Projector augmented-wave + core cor, Zval =  6.0
     Generated using "atomic" code by A. Dal Corso  v.5.0.99 svn rev. 10869
     Shape of augmentation charge: BESSEL
     Using radial grid of 1095 points,  4 beta functions with:
                l(1) =   0
                l(2) =   0
                l(3) =   1
                l(4) =   1
     Q(r) pseudized with 0 coefficients

     atomic species   valence    mass     pseudopotential
     Zn               20.00    65.38000     Zn( 1.00)
     H                 1.00     1.00800     H ( 1.00)
     O                 6.00    16.00000     O ( 1.00)

     No symmetry found

                                    s                        frac. trans.

      isym =  1     identity

 cryst.   s( 1) = (     1          0          0      )
                  (     0          1          0      )
                  (     0          0          1      )

 cart.    s( 1) = (  1.0000000  0.0000000  0.0000000 )
                  (  0.0000000  1.0000000 -0.0000000 )
                  (  0.0000000  0.0000000  1.0000000 )

   Cartesian axes

     site n.     atom                  positions (alat units)
         1        Zn     tau(   1) = (   0.1250000   0.1341203   0.0774344  )
         2        Zn     tau(   2) = (   0.1250000   0.0000000   0.3097376  )
         3        Zn     tau(   3) = (   0.1343397  -0.1345274   0.5805468  )
         4        Zn     tau(   4) = (   0.1291554  -0.2692580   0.8497966  )
         5        Zn     tau(   5) = (   0.1250000   0.4023610   0.0774344  )
         6        Zn     tau(   6) = (   0.1250000   0.2682407   0.3097376  )
         7        Zn     tau(   7) = (   0.1337327   0.1336999   0.5790179  )
         8        Zn     tau(   8) = (   0.1290862  -0.0009922   0.8508350  )
         9        Zn     tau(   9) = (   0.6250000   0.1341203   0.0774344  )
        10        Zn     tau(  10) = (   0.6250000   0.0000000   0.3097376  )
        11        Zn     tau(  11) = (   0.6323747  -0.1346284   0.5791868  )
        12        Zn     tau(  12) = (   0.6290067  -0.2695517   0.8455785  )
        13        Zn     tau(  13) = (   0.6250000   0.4023610   0.0774344  )
        14        Zn     tau(  14) = (   0.6250000   0.2682407   0.3097376  )
        15        Zn     tau(  15) = (   0.6327184   0.1334884   0.5777516  )
        16        Zn     tau(  16) = (   0.6289059  -0.0012852   0.8476740  )
        17        Zn     tau(  17) = (   0.3750000  -0.0000000   0.1548688  )
        18        Zn     tau(  18) = (   0.3750000  -0.1341203   0.3871721  )
        19        Zn     tau(  19) = (   0.3846949  -0.2697706   0.6247793  )
        20        Zn     tau(  20) = (   0.3776198  -0.4045250   0.8823751  )
        21        Zn     tau(  21) = (   0.3750000   0.2682407   0.1548688  )
        22        Zn     tau(  22) = (   0.3750000   0.1341203   0.3871721  )
        23        Zn     tau(  23) = (   0.3846771  -0.0000287   0.6245737  )
        24        Zn     tau(  24) = (   0.3781620  -0.1356147   0.8652827  )
        25        Zn     tau(  25) = (   0.8750000  -0.0000000   0.1548688  )
        26        Zn     tau(  26) = (   0.8750000  -0.1341203   0.3871721  )
        27        Zn     tau(  27) = (   0.8849150  -0.2686372   0.6228177  )
        28        Zn     tau(  28) = (   0.8789953  -0.4032605   0.8685287  )
        29        Zn     tau(  29) = (   0.8750000   0.2682407   0.1548688  )
        30        Zn     tau(  30) = (   0.8750000   0.1341203   0.3871721  )
        31        Zn     tau(  31) = (   0.8853156  -0.0002946   0.6226100  )
        32        Zn     tau(  32) = (   0.8787841  -0.1349676   0.8683252  )
        33        O      tau(  33) = (   0.4015615  -0.3953522   1.1446179  )
        34        H      tau(  34) = (   0.4878306  -0.3430624   1.1444687  )
        35        H      tau(  35) = (   0.3323600  -0.3277962   1.1730610  )

   Crystallographic axes

     site n.     atom                  positions (cryst. coord.)
         1        Zn     tau(   1) = (  0.1250000  0.3333333  0.0327328  )
         2        Zn     tau(   2) = (  0.1250000  0.3333333  0.1309312  )
         3        Zn     tau(   3) = (  0.1343397  0.3740138  0.2454066  )
         4        Zn     tau(   4) = (  0.1291554  0.4126376  0.3592230  )
         5        Zn     tau(   5) = (  0.1250000  0.8333333  0.0327328  )
         6        Zn     tau(   6) = (  0.1250000  0.8333333  0.1309312  )
         7        Zn     tau(   7) = (  0.1337327  0.8723435  0.2447604  )
         8        Zn     tau(   8) = (  0.1290862  0.9138018  0.3596619  )
         9        Zn     tau(   9) = (  0.6250000  0.3333333  0.0327328  )
        10        Zn     tau(  10) = (  0.6250000  0.3333333  0.1309312  )
        11        Zn     tau(  11) = (  0.6323747  0.3723621  0.2448318  )
        12        Zn     tau(  12) = (  0.6290067  0.4075506  0.3574399  )
        13        Zn     tau(  13) = (  0.6250000  0.8333333  0.0327328  )
        14        Zn     tau(  14) = (  0.6250000  0.8333333  0.1309312  )
        15        Zn     tau(  15) = (  0.6327184  0.8705864  0.2442251  )
        16        Zn     tau(  16) = (  0.6289059  0.9098539  0.3583257  )
        17        Zn     tau(  17) = (  0.3750000  0.1666667  0.0654656  )
        18        Zn     tau(  18) = (  0.3750000  0.1666667  0.1636640  )
        19        Zn     tau(  19) = (  0.3846949  0.1695230  0.2641044  )
        20        Zn     tau(  20) = (  0.3776198  0.1955604  0.3729944  )
        21        Zn     tau(  21) = (  0.3750000  0.6666667  0.0654656  )
        22        Zn     tau(  22) = (  0.3750000  0.6666667  0.1636640  )
        23        Zn     tau(  23) = (  0.3846771  0.6721001  0.2640176  )
        24        Zn     tau(  24) = (  0.3781620  0.6784142  0.3657692  )
        25        Zn     tau(  25) = (  0.8750000  0.1666667  0.0654656  )
        26        Zn     tau(  26) = (  0.8750000  0.1666667  0.1636640  )
        27        Zn     tau(  27) = (  0.8849150  0.1695245  0.2632752  )
        28        Zn     tau(  28) = (  0.8789953  0.1830161  0.3671413  )
        29        Zn     tau(  29) = (  0.8750000  0.6666667  0.0654656  )
        30        Zn     tau(  30) = (  0.8750000  0.6666667  0.1636640  )
        31        Zn     tau(  31) = (  0.8853156  0.6694910  0.2631874  )
        32        Zn     tau(  32) = (  0.8787841  0.6828946  0.3670553  )
        33        O      tau(  33) = (  0.4015615  0.4948788  0.4838487  )
        34        H      tau(  34) = (  0.4878306  0.5921863  0.4837857  )
        35        H      tau(  35) = (  0.3323600  0.6514130  0.4958721  )

     number of k points=     5  Marzari-Vanderbilt smearing, width (Ry)=  0.0200
                       cart. coord. in units 2pi/alat
        k(    1) = (   0.0000000   0.0000000   0.0000000), wk =   0.2222222
        k(    2) = (   0.0000000   0.6213326   0.3587265), wk =   0.4444444
        k(    3) = (   0.3333333   0.0000000   0.0000000), wk =   0.4444444
        k(    4) = (   0.3333333   0.6213326   0.3587265), wk =   0.4444444
        k(    5) = (   0.3333333  -0.6213326  -0.3587265), wk =   0.4444444

                       cryst. coord.
        k(    1) = (   0.0000000   0.0000000   0.0000000), wk =   0.2222222
        k(    2) = (   0.0000000   0.3333333   0.0000000), wk =   0.4444444
        k(    3) = (   0.3333333   0.0000000   0.0000000), wk =   0.4444444
        k(    4) = (   0.3333333   0.3333333   0.0000000), wk =   0.4444444
        k(    5) = (   0.3333333  -0.3333333   0.0000000), wk =   0.4444444

     Check: negative core charge=   -0.000002

     Initial potential from superposition of free atoms

     starting charge     647.9955, renormalised to     648.0000

     negative rho (up, down):  4.135E-03 0.000E+00
     Starting wfcs are  422 randomized atomic wfcs
[psid03:78782] Set MCA parameter "orte_base_help_aggregate" to 0 to see all help / error messages
     Checking if some PAW data can be deallocated...

     Self-consistent Calculation

[...]
     atom    7 type  1   force =    -0.54774752   -0.03662732   99.68648091
     atom    8 type  1   force =    -3.29766847   -0.24295011  361.56947564
     atom    9 type  1   force =    -0.00720952    0.00044123 -417.79643281
     atom   10 type  1   force =    -0.26981644   -0.13403536 -164.86251170
     atom   11 type  1   force =     0.77139832    0.12792102   99.20116850
     atom   12 type  1   force =     3.56924429    0.24858341  357.65512017
     atom   13 type  1   force =    -0.00696442   -0.00038864 -417.78253106
     atom   14 type  1   force =    -0.27318289    0.11578768 -164.85174063
     atom   15 type  1   force =     0.54012191   -0.14058076   98.34892350
     atom   16 type  1   force =     3.60690103   -0.25317043  359.44360494
     atom   17 type  1   force =    -0.04430267   -0.01271843 -354.25827114
     atom   18 type  1   force =     0.07459450   -0.04919976  -90.81380696
     atom   19 type  1   force =    -0.22186351   -0.99689666  148.10032535
     atom   20 type  1   force =    -0.39395024   -0.14089811  381.33800181
     atom   21 type  1   force =    -0.04428977    0.01276969 -354.25547194
     atom   22 type  1   force =     0.06806168    0.00112960  -91.03331509
     atom   23 type  1   force =    -0.17274536    1.02575250  148.00653318
     atom   24 type  1   force =    -0.10828994    0.08621043  375.85182595
     atom   25 type  1   force =     0.11220916   -0.01332533 -354.26941848
     atom   26 type  1   force =     0.57552889   -0.03131746  -90.97867483
     atom   27 type  1   force =     0.31632341    0.07272977  147.48119717
     atom   28 type  1   force =    -0.46686155    0.00566154  384.56374874
     atom   29 type  1   force =     0.11277167    0.01327646 -354.26673052
     atom   30 type  1   force =     0.57762083    0.01481041  -91.12035754
     atom   31 type  1   force =     0.20455666   -0.08342181  147.42435922
     atom   32 type  1   force =    -0.44539149   -0.00475537  384.58943714
     atom   33 type  3   force =    -0.06007189   -3.89938608  117.04976041
     atom   34 type  2   force =     3.38791158    1.77420276   19.41781218
     atom   35 type  2   force =    -2.66829571    2.32957445   19.52546566
     The local contribution  to forces
     atom    1 type  1   force =     0.01757955   -0.00080699  417.84403952
     atom    2 type  1   force =     0.32225565    0.13263088  164.38022314
     atom    3 type  1   force =     0.87095521   -0.01071463 -100.54904867
     atom    4 type  1   force =     3.32966687   -0.21506441 -360.55934700
     atom    5 type  1   force =     0.01839293    0.00122830  417.81970396
     atom    6 type  1   force =     0.32584561   -0.11848747  164.36693824
     atom    7 type  1   force =     0.54330450    0.03664253  -99.62213014
     atom    8 type  1   force =     3.31637861    0.24770289 -361.48706795
     atom    9 type  1   force =     0.00400180    0.00011230  417.94357796
     atom   10 type  1   force =     0.26895948    0.13004410  164.82385640
     atom   11 type  1   force =    -0.78521901   -0.12435226  -99.14628885
     atom   12 type  1   force =    -3.56983974   -0.25630898 -357.55559203
     atom   13 type  1   force =     0.00393047    0.00022965  417.91946296
     atom   14 type  1   force =     0.27224605   -0.10974772  164.81246072
     atom   15 type  1   force =    -0.56574599    0.13872225  -98.28415797
     atom   16 type  1   force =    -3.60624561    0.25676686 -359.36160770
     atom   17 type  1   force =     0.04229136    0.01191363  354.21086313
     atom   18 type  1   force =    -0.06715793    0.05113583   90.82398771
     atom   19 type  1   force =     0.21956763    0.99967151 -148.11539611
     atom   20 type  1   force =     0.37320310    0.12270268 -381.59170359
     atom   21 type  1   force =     0.04239780   -0.01129714  354.20987087
     atom   22 type  1   force =    -0.06063380   -0.00116703   91.02653566
     atom   23 type  1   force =     0.17104067   -1.03214534 -148.02768117
     atom   24 type  1   force =     0.10761135   -0.08363636 -375.91409285
     atom   25 type  1   force =    -0.11432905    0.01383397  354.21908383
     atom   26 type  1   force =    -0.56519534    0.03308226   90.98667855
     atom   27 type  1   force =    -0.31239029   -0.07263931 -147.48203642
     atom   28 type  1   force =     0.47548261   -0.00664017 -384.65184787
     atom   29 type  1   force =    -0.11527159   -0.01306220  354.21732656
     atom   30 type  1   force =    -0.56830738   -0.01573230   91.12941132
     atom   31 type  1   force =    -0.20008913    0.08347605 -147.42476137
     atom   32 type  1   force =     0.44964668    0.00585818 -384.66837034
     atom   33 type  3   force =    -0.22624574    1.66148147 -117.48847755
     atom   34 type  2   force =    -3.30869582   -1.73052954  -19.41891952
     atom   35 type  2   force =     2.60358493   -2.27124671  -19.50055176
     The core correction contribution to forces
     atom    1 type  1   force =     0.00000000    0.00000000    0.00000000
     atom    2 type  1   force =     0.00000000    0.00000000    0.00000000
     atom    3 type  1   force =     0.00000000    0.00000000    0.00000000
     atom    4 type  1   force =     0.00000000    0.00000000    0.00000000
     atom    5 type  1   force =     0.00000000    0.00000000    0.00000000
     atom    6 type  1   force =     0.00000000    0.00000000    0.00000000
     atom    7 type  1   force =     0.00000000    0.00000000    0.00000000
     atom    8 type  1   force =     0.00000000    0.00000000    0.00000000
     atom    9 type  1   force =     0.00000000    0.00000000    0.00000000
     atom   10 type  1   force =     0.00000000    0.00000000    0.00000000
     atom   11 type  1   force =     0.00000000    0.00000000    0.00000000
     atom   12 type  1   force =     0.00000000    0.00000000    0.00000000
     atom   13 type  1   force =     0.00000000    0.00000000    0.00000000
     atom   14 type  1   force =     0.00000000    0.00000000    0.00000000
     atom   15 type  1   force =     0.00000000    0.00000000    0.00000000
     atom   16 type  1   force =     0.00000000    0.00000000    0.00000000
     atom   17 type  1   force =     0.00000000    0.00000000    0.00000000
     atom   18 type  1   force =     0.00000000    0.00000000    0.00000000
     atom   19 type  1   force =     0.00000000    0.00000000    0.00000000
     atom   20 type  1   force =     0.00000000    0.00000000    0.00000000
     atom   21 type  1   force =     0.00000000    0.00000000    0.00000000
     atom   22 type  1   force =     0.00000000    0.00000000    0.00000000
     atom   23 type  1   force =     0.00000000    0.00000000    0.00000000
     atom   24 type  1   force =     0.00000000    0.00000000    0.00000000
     atom   25 type  1   force =     0.00000000    0.00000000    0.00000000
     atom   26 type  1   force =     0.00000000    0.00000000    0.00000000
     atom   27 type  1   force =     0.00000000    0.00000000    0.00000000
     atom   28 type  1   force =     0.00000000    0.00000000    0.00000000
     atom   29 type  1   force =     0.00000000    0.00000000    0.00000000
     atom   30 type  1   force =     0.00000000    0.00000000    0.00000000
     atom   31 type  1   force =     0.00000000    0.00000000    0.00000000
     atom   32 type  1   force =     0.00000000    0.00000000    0.00000000
     atom   33 type  3   force =    -0.00289195   -0.02272101   -0.00490392
     atom   34 type  2   force =     0.00000000    0.00000000    0.00000000
     atom   35 type  2   force =     0.00000000    0.00000000    0.00000000
     The Hubbard contrib.    to forces
     atom    1 type  1   force =     0.00000000    0.00000000    0.00000000
     atom    2 type  1   force =     0.00000000    0.00000000    0.00000000
     atom    3 type  1   force =     0.00000000    0.00000000    0.00000000
     atom    4 type  1   force =     0.00000000    0.00000000    0.00000000
     atom    5 type  1   force =     0.00000000    0.00000000    0.00000000
     atom    6 type  1   force =     0.00000000    0.00000000    0.00000000
     atom    7 type  1   force =     0.00000000    0.00000000    0.00000000
     atom    8 type  1   force =     0.00000000    0.00000000    0.00000000
     atom    9 type  1   force =     0.00000000    0.00000000    0.00000000
     atom   10 type  1   force =     0.00000000    0.00000000    0.00000000
     atom   11 type  1   force =     0.00000000    0.00000000    0.00000000
     atom   12 type  1   force =     0.00000000    0.00000000    0.00000000
     atom   13 type  1   force =     0.00000000    0.00000000    0.00000000
     atom   14 type  1   force =     0.00000000    0.00000000    0.00000000
     atom   15 type  1   force =     0.00000000    0.00000000    0.00000000
     atom   16 type  1   force =     0.00000000    0.00000000    0.00000000
     atom   17 type  1   force =     0.00000000    0.00000000    0.00000000
     atom   18 type  1   force =     0.00000000    0.00000000    0.00000000
     atom   19 type  1   force =     0.00000000    0.00000000    0.00000000
     atom   20 type  1   force =     0.00000000    0.00000000    0.00000000
     atom   21 type  1   force =     0.00000000    0.00000000    0.00000000
     atom   22 type  1   force =     0.00000000    0.00000000    0.00000000
     atom   23 type  1   force =     0.00000000    0.00000000    0.00000000
     atom   24 type  1   force =     0.00000000    0.00000000    0.00000000
     atom   25 type  1   force =     0.00000000    0.00000000    0.00000000
     atom   26 type  1   force =     0.00000000    0.00000000    0.00000000
     atom   27 type  1   force =     0.00000000    0.00000000    0.00000000
     atom   28 type  1   force =     0.00000000    0.00000000    0.00000000
     atom   29 type  1   force =     0.00000000    0.00000000    0.00000000
     atom   30 type  1   force =     0.00000000    0.00000000    0.00000000
     atom   31 type  1   force =     0.00000000    0.00000000    0.00000000
     atom   32 type  1   force =     0.00000000    0.00000000    0.00000000
     atom   33 type  3   force =     0.00000000    0.00000000    0.00000000
     atom   34 type  2   force =     0.00000000    0.00000000    0.00000000
     atom   35 type  2   force =     0.00000000    0.00000000    0.00000000
     The SCF correction term to forces
     atom    1 type  1   force =    -0.00000000   -0.00000000    0.00000000
     atom    2 type  1   force =     0.00000000   -0.00000000   -0.00000000
     atom    3 type  1   force =     0.00035939   -0.00000635   -0.00065704
     atom    4 type  1   force =    -0.00028942   -0.00006915    0.00043127
     atom    5 type  1   force =    -0.00000000    0.00000000    0.00000000
     atom    6 type  1   force =     0.00000000    0.00000000   -0.00000000
     atom    7 type  1   force =     0.00040179    0.00000667   -0.00062582
     atom    8 type  1   force =    -0.00026211    0.00006897    0.00043372
     atom    9 type  1   force =     0.00000000   -0.00000000    0.00000000
     atom   10 type  1   force =    -0.00000000   -0.00000000   -0.00000000
     atom   11 type  1   force =    -0.00036715   -0.00000620   -0.00067312
     atom   12 type  1   force =     0.00026765   -0.00005831    0.00038784
     atom   13 type  1   force =     0.00000000    0.00000000    0.00000000
     atom   14 type  1   force =    -0.00000000    0.00000000   -0.00000000
     atom   15 type  1   force =    -0.00041060    0.00000678   -0.00065056
     atom   16 type  1   force =     0.00024674    0.00005811    0.00038876
     atom   17 type  1   force =     0.00000000   -0.00000000    0.00000000
     atom   18 type  1   force =     0.00000000    0.00000000   -0.00000000
     atom   19 type  1   force =     0.00001379   -0.00006625   -0.00068032
     atom   20 type  1   force =    -0.00001135   -0.00004717    0.00013188
     atom   21 type  1   force =     0.00000000    0.00000000    0.00000000
     atom   22 type  1   force =     0.00000000   -0.00000000   -0.00000000
     atom   23 type  1   force =     0.00001437    0.00006485   -0.00063796
     atom   24 type  1   force =    -0.00000499    0.00005662    0.00004117
     atom   25 type  1   force =    -0.00000000   -0.00000000   -0.00000000
     atom   26 type  1   force =    -0.00000000    0.00000000   -0.00000000
     atom   27 type  1   force =     0.00000137    0.00002312   -0.00019387
     atom   28 type  1   force =     0.00001871   -0.00000721    0.00080450
     atom   29 type  1   force =    -0.00000000    0.00000000   -0.00000000
     atom   30 type  1   force =    -0.00000000   -0.00000000   -0.00000000
     atom   31 type  1   force =     0.00000166   -0.00002295   -0.00019362
     atom   32 type  1   force =     0.00001212    0.00000756    0.00078342
     atom   33 type  3   force =     0.00000185   -0.00000277    0.00011512
     atom   34 type  2   force =    -0.00000611   -0.00000683    0.00001682
     atom   35 type  2   force =     0.00000630   -0.00000878    0.00001251

     Total force =     0.028344     Total SCF correction =     0.002351

     Computing stress (Cartesian axis) and pressure

     negative rho (up, down):  3.644E-03 0.000E+00
          total   stress  (Ry/bohr**3)                   (kbar)     P=      -10.14
  -0.00009802   0.00000009  -0.00000059          -14.42        0.01       -0.09
   0.00000009  -0.00015010   0.00000076            0.01      -22.08        0.11
  -0.00000059   0.00000076   0.00004142           -0.09        0.11        6.09

     kinetic stress (kbar)  16150.20      0.94      7.51
                                0.94  16108.64     -8.19
                                7.51     -8.19  16209.02

     local   stress (kbar)**********     -0.04    -59.23
                               -0.04**********    -80.37
                              -59.23    -80.371313272.73

     nonloc. stress (kbar)  -1668.05     -0.07      0.40
                               -0.07  -1639.39     -0.48
                                0.40     -0.48  -1679.53

     hartree stress (kbar) 684569.06      0.52     32.56
                                0.52 691957.32     29.43
                               32.56     29.43-612699.20

     exc-cor stress (kbar)  -8061.13     -0.01     -0.09
                               -0.01  -8057.08      0.11
                               -0.09      0.11  -8064.76

     corecor stress (kbar)     -7.85     -0.00     -0.02
                               -0.00     -7.90      0.02
                               -0.02      0.02     -7.95

     ewald   stress (kbar) 605743.67     -1.32     18.77
                               -1.32 615499.57     59.60
                               18.77     59.60-707024.23

     hubbard stress (kbar)      0.00      0.00      0.00
                                0.00      0.00      0.00
                                0.00      0.00      0.00

     DFT-D   stress (kbar)      0.00      0.00      0.00
                                0.00      0.00      0.00
                                0.00      0.00      0.00

     XDM     stress (kbar)      0.00      0.00      0.00
                                0.00      0.00      0.00
                                0.00      0.00      0.00

     dft-nl  stress (kbar)      0.00      0.00      0.00
                                0.00      0.00      0.00
                                0.00      0.00      0.00

     TS-vdW  stress (kbar)      0.00      0.00      0.00
                                0.00      0.00      0.00
                                0.00      0.00      0.00

     MDB     stress (kbar)      0.00      0.00      0.00
                                0.00      0.00      0.00
                                0.00      0.00      0.00

     3D-RISM stress (kbar)      0.00      0.00      0.00
                                0.00      0.00      0.00
                                0.00      0.00      0.00

     Writing all to output data dir ./tmp/Zn100_2x2x4_scf_H2O.save/ :
     XML data file, charge density, pseudopotentials, collected wavefunctions

     General routines

     Parallel routines

     PAW routines

   This run was terminated on:  11:21:21  17Mar2025

   JOB DONE.
Note: The following floating-point exceptions are signalling: IEEE_DENORMAL
Note: The following floating-point exceptions are signalling: IEEE_DENORMAL
Note: The following floating-point exceptions are signalling: IEEE_DENORMAL
Note: The following floating-point exceptions are signalling: IEEE_DENORMAL
Note: The following floating-point exceptions are signalling: IEEE_DENORMAL
Note: The following floating-point exceptions are signalling: IEEE_DENORMAL
Note: The following floating-point exceptions are signalling: IEEE_DENORMAL