     Program PWSCF v.7.3.1 starts on 17Mar2025 at 10:41: 0

     Waiting for input...
     Reading input from standard input
Warning: card &CELL ignored
Warning: card   CELL_DOFREE = 'ALL' ignored
Warning: card / ignored

     Current dimensions of program PWSCF are:
     Max number of different atomic species (ntypx) = 10
     Max number of k-points (npk) =  40000
     Max angular momentum in pseudopotentials (lmaxx) =  4
     Message from routine input:
     WARNING: "startingwfc" set to atomic+random may spoil restart
     Message from routine input:
     WARNING: "startingpot" set to atomic may spoil restart
     file C.pbe-n-kjpaw_psl.1.0.0.UPF: wavefunction(s)  2S 2P renormalized

     R & G space division:  proc/nbgrp/npool/nimage =      30
     Subspace diagonalization in iterative solution of the eigenvalue problem:
     one sub-group per band group will be used

     Using Slab Decomposition

     bravais-lattice index     =            0
     lattice parameter (alat)  =       9.8808  a.u.
     unit-cell volume          =    7588.2966 (a.u.)^3
     number of atoms/cell      =           47
     number of atomic types    =            4
     number of electrons       =       684.00
     number of Kohn-Sham states=          410
     kinetic-energy cutoff     =      30.0000  Ry
     charge density cutoff     =     120.0000  Ry
     scf convergence threshold =      7.3E-07
     mixing beta               =       0.7000
     number of iterations used =            8  plain     mixing
     energy convergence thresh.=      1.0E-05
     force convergence thresh. =      5.0E-04
     Exchange-correlation= PBE
                           (   1   4   3   4   0   0   0)
     nstep                     =          100

     celldm(1)=   9.880848  celldm(2)=   0.000000  celldm(3)=   0.000000
     celldm(4)=   0.000000  celldm(5)=   0.000000  celldm(6)=   0.000000

     crystal axes: (cart. coord. in units of alat)
               a(1) = (   1.000000   0.000000   0.000000 )
               a(2) = (  -1.000000   1.732051   0.000000 )
               a(3) = (   0.000000   0.000000   4.541517 )

     reciprocal axes: (cart. coord. in units 2 pi/alat)
               b(1) = (  1.000000  0.577350 -0.000000 )
               b(2) = (  0.000000  0.577350  0.000000 )
               b(3) = (  0.000000 -0.000000  0.220191 )

     PseudoPot. # 1 for Zn read from file:
     /home/ys/qepseudo/SSSP_1.3.0_PBE_efficiency/Zn_pbe_v1.uspp.F.UPF
     MD5 check sum: df62231357ef9e81f77b2b3087fa5675
     Pseudo is Ultrasoft, Zval = 20.0
     Generated by new atomic code, or converted to UPF format
     Using radial grid of  943 points,  6 beta functions with:
                l(1) =   0
                l(2) =   0
                l(3) =   1
                l(4) =   1
                l(5) =   2
                l(6) =   2
     Q(r) pseudized with  8 coefficients,  rinner =    1.100   1.100   1.100
                                                       1.100   1.100

     PseudoPot. # 2 for C  read from file:
     /home/ys/qepseudo/SSSP_1.3.0_PBE_efficiency/C.pbe-n-kjpaw_psl.1.0.0.UPF
     MD5 check sum: 5d2aebdfa2cae82b50a7e79e9516da0f
     Pseudo is Projector augmented-wave + core cor, Zval =  4.0
     Generated using "atomic" code by A. Dal Corso  v.5.1
     Shape of augmentation charge: PSQ
     Using radial grid of 1073 points,  4 beta functions with:
                l(1) =   0
                l(2) =   0
                l(3) =   1
                l(4) =   1
     Q(r) pseudized with 0 coefficients

     PseudoPot. # 3 for N  read from file:
     /home/ys/qepseudo/SSSP_1.3.0_PBE_efficiency/N.pbe-n-radius_5.UPF
     MD5 check sum: 16739722b17309cd8fe442a2ace49922
     Pseudo is Ultrasoft + core correction, Zval =  5.0
     Generated using "atomic" code by A. Dal Corso  v.5.1
     Using radial grid of 1085 points,  4 beta functions with:
                l(1) =   0
                l(2) =   0
                l(3) =   1
                l(4) =   1
     Q(r) pseudized with 0 coefficients

     PseudoPot. # 4 for H  read from file:
     /home/ys/qepseudo/SSSP_1.3.0_PBE_efficiency/H.pbe-rrkjus_psl.1.0.0.UPF
     MD5 check sum: f52b6d4d1c606e5624b1dc7b2218f220
     Pseudo is Ultrasoft, Zval =  1.0
     Generated using "atomic" code by A. Dal Corso  v.5.1
     Using radial grid of  929 points,  2 beta functions with:
                l(1) =   0
                l(2) =   0
     Q(r) pseudized with 0 coefficients

     atomic species   valence    mass     pseudopotential
     Zn               20.00    65.38000     Zn( 1.00)
     C                 4.00    12.01070     C ( 1.00)
     N                 5.00    14.00670     N ( 1.00)
     H                 1.00     1.00800     H ( 1.00)

     No symmetry found

                                    s                        frac. trans.

      isym =  1     identity

 cryst.   s( 1) = (     1          0          0      )
                  (     0          1          0      )
                  (     0          0          1      )

 cart.    s( 1) = (  1.0000000  0.0000000  0.0000000 )
                  (  0.0000000  1.0000000  0.0000000 )
                  (  0.0000000  0.0000000  1.0000000 )

   Cartesian axes

     site n.     atom                  positions (alat units)
         1        Zn     tau(   1) = (  -0.0000000   0.2886751   0.2329997  )
         2        Zn     tau(   2) = (  -0.0015956   0.2883274   1.1945650  )
         3        Zn     tau(   3) = (  -0.2500000   0.7216878   0.2329997  )
         4        Zn     tau(   4) = (  -0.2515812   0.7210546   1.1944703  )
         5        Zn     tau(   5) = (  -0.5000000   1.1547005   0.2329997  )
         6        Zn     tau(   6) = (  -0.5013201   1.1545453   1.1938771  )
         7        Zn     tau(   7) = (  -0.7500000   1.5877132   0.2329997  )
         8        Zn     tau(   8) = (  -0.7515572   1.5876848   1.1947155  )
         9        Zn     tau(   9) = (   0.5000000   0.2886751   0.2329997  )
        10        Zn     tau(  10) = (   0.4984486   0.2882905   1.1953127  )
        11        Zn     tau(  11) = (   0.2500000   0.7216878   0.2329997  )
        12        Zn     tau(  12) = (   0.2483912   0.7208958   1.1945420  )
        13        Zn     tau(  13) = (  -0.0000000   1.1547005   0.2329997  )
        14        Zn     tau(  14) = (  -0.0018542   1.1545267   1.1929962  )
        15        Zn     tau(  15) = (  -0.2500000   1.5877132   0.2329997  )
        16        Zn     tau(  16) = (  -0.2516238   1.5875761   1.1943214  )
        17        Zn     tau(  17) = (   0.2500000   0.1443376   0.6989991  )
        18        Zn     tau(  18) = (   0.2477781   0.1418880   1.6907569  )
        19        Zn     tau(  19) = (   0.0000000   0.5773503   0.6989991  )
        20        Zn     tau(  20) = (  -0.0022117   0.5747981   1.6912572  )
        21        Zn     tau(  21) = (  -0.2500000   1.0103630   0.6989991  )
        22        Zn     tau(  22) = (  -0.2523956   1.0080559   1.6901197  )
        23        Zn     tau(  23) = (  -0.5000000   1.4433757   0.6989991  )
        24        Zn     tau(  24) = (  -0.5023423   1.4408620   1.6897502  )
        25        Zn     tau(  25) = (   0.7500000   0.1443376   0.6989991  )
        26        Zn     tau(  26) = (   0.7476007   0.1418093   1.6886404  )
        27        Zn     tau(  27) = (   0.5000000   0.5773503   0.6989991  )
        28        Zn     tau(  28) = (   0.4978454   0.5745953   1.6880972  )
        29        Zn     tau(  29) = (   0.2500000   1.0103630   0.6989991  )
        30        Zn     tau(  30) = (   0.2475240   1.0079744   1.6784327  )
        31        Zn     tau(  31) = (   0.0000000   1.4433757   0.6989991  )
        32        Zn     tau(  32) = (  -0.0024341   1.4411790   1.6878057  )
        33        C      tau(  33) = (   0.2399568   0.8444078   3.4525702  )
        34        C      tau(  34) = (   0.2630131   0.8850722   3.1840829  )
        35        C      tau(  35) = (   0.4196057   0.7248134   3.0335672  )
        36        C      tau(  36) = (   0.1243007   1.0818288   3.0622350  )
        37        C      tau(  37) = (   0.1431885   1.1183810   2.7999938  )
        38        C      tau(  38) = (   0.4397472   0.7624359   2.7716382  )
        39        C      tau(  39) = (   0.3024229   0.9603392   2.6500097  )
        40        N      tau(  40) = (   0.2206571   0.8103455   3.6736596  )
        41        N      tau(  41) = (   0.3312732   1.0041781   2.3911770  )
        42        H      tau(  42) = (   0.1951439   1.1111849   2.3012935  )
        43        H      tau(  43) = (   0.4013544   0.8591529   2.2810323  )
        44        H      tau(  44) = (   0.5274808   0.5711421   3.1257394  )
        45        H      tau(  45) = (   0.0323501   1.2705899   2.7080448  )
        46        H      tau(  46) = (   0.5642588   0.6378932   2.6579862  )
        47        H      tau(  47) = (  -0.0016305   1.2040791   3.1760216  )

   Crystallographic axes

     site n.     atom                  positions (cryst. coord.)
         1        Zn     tau(   1) = (  0.1666667  0.1666667  0.0513044  )
         2        Zn     tau(   2) = (  0.1648703  0.1664659  0.2630321  )
         3        Zn     tau(   3) = (  0.1666667  0.4166667  0.0513044  )
         4        Zn     tau(   4) = (  0.1647199  0.4163011  0.2630113  )
         5        Zn     tau(   5) = (  0.1666667  0.6666667  0.0513044  )
         6        Zn     tau(   6) = (  0.1652570  0.6665771  0.2628807  )
         7        Zn     tau(   7) = (  0.1666667  0.9166667  0.0513044  )
         8        Zn     tau(   8) = (  0.1650931  0.9166503  0.2630653  )
         9        Zn     tau(   9) = (  0.6666667  0.1666667  0.0513044  )
        10        Zn     tau(  10) = (  0.6648931  0.1664446  0.2631968  )
        11        Zn     tau(  11) = (  0.6666667  0.4166667  0.0513044  )
        12        Zn     tau(  12) = (  0.6646006  0.4162094  0.2630271  )
        13        Zn     tau(  13) = (  0.6666667  0.6666667  0.0513044  )
        14        Zn     tau(  14) = (  0.6647121  0.6665663  0.2626867  )
        15        Zn     tau(  15) = (  0.6666667  0.9166667  0.0513044  )
        16        Zn     tau(  16) = (  0.6649637  0.9165875  0.2629785  )
        17        Zn     tau(  17) = (  0.3333333  0.0833333  0.1539131  )
        18        Zn     tau(  18) = (  0.3296972  0.0819191  0.3722890  )
        19        Zn     tau(  19) = (  0.3333333  0.3333333  0.1539131  )
        20        Zn     tau(  20) = (  0.3296481  0.3318599  0.3723991  )
        21        Zn     tau(  21) = (  0.3333333  0.5833333  0.1539131  )
        22        Zn     tau(  22) = (  0.3296058  0.5820014  0.3721487  )
        23        Zn     tau(  23) = (  0.3333333  0.8333333  0.1539131  )
        24        Zn     tau(  24) = (  0.3295397  0.8318821  0.3720673  )
        25        Zn     tau(  25) = (  0.8333333  0.0833333  0.1539131  )
        26        Zn     tau(  26) = (  0.8294744  0.0818737  0.3718230  )
        27        Zn     tau(  27) = (  0.8333333  0.3333333  0.1539131  )
        28        Zn     tau(  28) = (  0.8295882  0.3317427  0.3717033  )
        29        Zn     tau(  29) = (  0.8333333  0.5833333  0.1539131  )
[...]
     atom   22 type  1   force =     0.00000000    0.00000000    0.00000000
     atom   23 type  1   force =     0.00000000    0.00000000    0.00000000
     atom   24 type  1   force =     0.00000000    0.00000000    0.00000000
     atom   25 type  1   force =     0.00000000    0.00000000    0.00000000
     atom   26 type  1   force =     0.00000000    0.00000000    0.00000000
     atom   27 type  1   force =     0.00000000    0.00000000    0.00000000
     atom   28 type  1   force =     0.00000000    0.00000000    0.00000000
     atom   29 type  1   force =     0.00000000    0.00000000    0.00000000
     atom   30 type  1   force =     0.00000000    0.00000000    0.00000000
     atom   31 type  1   force =     0.00000000    0.00000000    0.00000000
     atom   32 type  1   force =     0.00000000    0.00000000    0.00000000
     atom   33 type  2   force =    -0.00184947   -0.00207164    0.01051261
     atom   34 type  2   force =     0.00215276    0.00319456    0.00070999
     atom   35 type  2   force =    -0.00094676   -0.00186958   -0.00354399
     atom   36 type  2   force =    -0.00037976    0.00111694   -0.00295315
     atom   37 type  2   force =     0.00068898    0.00066245   -0.00040604
     atom   38 type  2   force =    -0.00028054    0.00084949    0.00019428
     atom   39 type  2   force =    -0.00043262   -0.00041125    0.00522728
     atom   40 type  3   force =    -0.00103486   -0.00174970    0.01148498
     atom   41 type  3   force =     0.00528220    0.00433675   -0.00063714
     atom   42 type  4   force =     0.00000000    0.00000000    0.00000000
     atom   43 type  4   force =     0.00000000    0.00000000    0.00000000
     atom   44 type  4   force =     0.00000000    0.00000000    0.00000000
     atom   45 type  4   force =     0.00000000    0.00000000    0.00000000
     atom   46 type  4   force =     0.00000000    0.00000000    0.00000000
     atom   47 type  4   force =     0.00000000    0.00000000    0.00000000
     The Hubbard contrib.    to forces
     atom    1 type  1   force =     0.00000000    0.00000000    0.00000000
     atom    2 type  1   force =     0.00000000    0.00000000    0.00000000
     atom    3 type  1   force =     0.00000000    0.00000000    0.00000000
     atom    4 type  1   force =     0.00000000    0.00000000    0.00000000
     atom    5 type  1   force =     0.00000000    0.00000000    0.00000000
     atom    6 type  1   force =     0.00000000    0.00000000    0.00000000
     atom    7 type  1   force =     0.00000000    0.00000000    0.00000000
     atom    8 type  1   force =     0.00000000    0.00000000    0.00000000
     atom    9 type  1   force =     0.00000000    0.00000000    0.00000000
     atom   10 type  1   force =     0.00000000    0.00000000    0.00000000
     atom   11 type  1   force =     0.00000000    0.00000000    0.00000000
     atom   12 type  1   force =     0.00000000    0.00000000    0.00000000
     atom   13 type  1   force =     0.00000000    0.00000000    0.00000000
     atom   14 type  1   force =     0.00000000    0.00000000    0.00000000
     atom   15 type  1   force =     0.00000000    0.00000000    0.00000000
     atom   16 type  1   force =     0.00000000    0.00000000    0.00000000
     atom   17 type  1   force =     0.00000000    0.00000000    0.00000000
     atom   18 type  1   force =     0.00000000    0.00000000    0.00000000
     atom   19 type  1   force =     0.00000000    0.00000000    0.00000000
     atom   20 type  1   force =     0.00000000    0.00000000    0.00000000
     atom   21 type  1   force =     0.00000000    0.00000000    0.00000000
     atom   22 type  1   force =     0.00000000    0.00000000    0.00000000
     atom   23 type  1   force =     0.00000000    0.00000000    0.00000000
     atom   24 type  1   force =     0.00000000    0.00000000    0.00000000
     atom   25 type  1   force =     0.00000000    0.00000000    0.00000000
     atom   26 type  1   force =     0.00000000    0.00000000    0.00000000
     atom   27 type  1   force =     0.00000000    0.00000000    0.00000000
     atom   28 type  1   force =     0.00000000    0.00000000    0.00000000
     atom   29 type  1   force =     0.00000000    0.00000000    0.00000000
     atom   30 type  1   force =     0.00000000    0.00000000    0.00000000
     atom   31 type  1   force =     0.00000000    0.00000000    0.00000000
     atom   32 type  1   force =     0.00000000    0.00000000    0.00000000
     atom   33 type  2   force =     0.00000000    0.00000000    0.00000000
     atom   34 type  2   force =     0.00000000    0.00000000    0.00000000
     atom   35 type  2   force =     0.00000000    0.00000000    0.00000000
     atom   36 type  2   force =     0.00000000    0.00000000    0.00000000
     atom   37 type  2   force =     0.00000000    0.00000000    0.00000000
     atom   38 type  2   force =     0.00000000    0.00000000    0.00000000
     atom   39 type  2   force =     0.00000000    0.00000000    0.00000000
     atom   40 type  3   force =     0.00000000    0.00000000    0.00000000
     atom   41 type  3   force =     0.00000000    0.00000000    0.00000000
     atom   42 type  4   force =     0.00000000    0.00000000    0.00000000
     atom   43 type  4   force =     0.00000000    0.00000000    0.00000000
     atom   44 type  4   force =     0.00000000    0.00000000    0.00000000
     atom   45 type  4   force =     0.00000000    0.00000000    0.00000000
     atom   46 type  4   force =     0.00000000    0.00000000    0.00000000
     atom   47 type  4   force =     0.00000000    0.00000000    0.00000000
     The SCF correction term to forces
     atom    1 type  1   force =    -0.00000000   -0.00000000   -0.00000000
     atom    2 type  1   force =     0.00000367    0.00000561   -0.00004382
     atom    3 type  1   force =    -0.00000000   -0.00000000   -0.00000000
     atom    4 type  1   force =     0.00000795    0.00007169    0.00004084
     atom    5 type  1   force =     0.00000000    0.00000000   -0.00000000
     atom    6 type  1   force =    -0.00001039   -0.00000212    0.00008264
     atom    7 type  1   force =     0.00000000    0.00000000   -0.00000000
     atom    8 type  1   force =    -0.00001121   -0.00008040   -0.00000087
     atom    9 type  1   force =     0.00000000   -0.00000000   -0.00000000
     atom   10 type  1   force =    -0.00000457    0.00000794   -0.00004833
     atom   11 type  1   force =     0.00000000   -0.00000000   -0.00000000
     atom   12 type  1   force =    -0.00000841    0.00007701    0.00003614
     atom   13 type  1   force =    -0.00000000    0.00000000   -0.00000000
     atom   14 type  1   force =     0.00001016   -0.00000077    0.00008295
     atom   15 type  1   force =    -0.00000000    0.00000000   -0.00000000
     atom   16 type  1   force =     0.00001040   -0.00007738   -0.00000326
     atom   17 type  1   force =    -0.00000000    0.00000000   -0.00000000
     atom   18 type  1   force =    -0.00000914   -0.00005833    0.00007225
     atom   19 type  1   force =     0.00000000   -0.00000000   -0.00000000
     atom   20 type  1   force =    -0.00000891    0.00010415    0.00002448
     atom   21 type  1   force =     0.00000000   -0.00000000   -0.00000000
     atom   22 type  1   force =    -0.00000235    0.00005680    0.00004014
     atom   23 type  1   force =    -0.00000000    0.00000000   -0.00000000
     atom   24 type  1   force =    -0.00000269   -0.00010255    0.00006829
     atom   25 type  1   force =     0.00000000    0.00000000   -0.00000000
     atom   26 type  1   force =     0.00000721   -0.00005318    0.00007650
     atom   27 type  1   force =    -0.00000000   -0.00000000   -0.00000000
     atom   28 type  1   force =     0.00000838    0.00010947    0.00002872
     atom   29 type  1   force =    -0.00000000   -0.00000000    0.00000000
     atom   30 type  1   force =     0.00000205    0.00006209    0.00002940
     atom   31 type  1   force =     0.00000000    0.00000000   -0.00000000
     atom   32 type  1   force =     0.00000153   -0.00010213    0.00006698
     atom   33 type  2   force =     0.00000235   -0.00000262   -0.00000178
     atom   34 type  2   force =     0.00000153   -0.00000490    0.00001422
     atom   35 type  2   force =     0.00000270   -0.00000516    0.00001044
     atom   36 type  2   force =    -0.00000400    0.00000422    0.00000474
     atom   37 type  2   force =    -0.00000993    0.00001175    0.00000569
     atom   38 type  2   force =     0.00000868   -0.00001023    0.00000960
     atom   39 type  2   force =    -0.00000423    0.00000424    0.00000359
     atom   40 type  3   force =     0.00000347   -0.00000376   -0.00001133
     atom   41 type  3   force =    -0.00000612    0.00000669   -0.00001895
     atom   42 type  4   force =    -0.00000192    0.00000205   -0.00000312
     atom   43 type  4   force =     0.00000065   -0.00000038   -0.00000334
     atom   44 type  4   force =     0.00000014   -0.00000022    0.00000138
     atom   45 type  4   force =    -0.00000021    0.00000067    0.00000091
     atom   46 type  4   force =     0.00000126   -0.00000120    0.00000104
     atom   47 type  4   force =    -0.00000055    0.00000067    0.00000084

     Total force =     0.001763     Total SCF correction =     0.000358
     SCF correction compared to forces is large: reduce conv_thr to get better values

     Computing stress (Cartesian axis) and pressure

     negative rho (up, down):  1.224E-02 0.000E+00
          total   stress  (Ry/bohr**3)                   (kbar)     P=     -310.17
  -0.00217914   0.00000201   0.00000153         -320.56        0.30        0.23
   0.00000201  -0.00206848  -0.00000086            0.30     -304.28       -0.13
   0.00000153  -0.00000086  -0.00207785            0.23       -0.13     -305.66

     kinetic stress (kbar)  17775.92     62.04     13.26
                               62.04  17769.10     13.51
                               13.26     13.51  17766.44

     local   stress (kbar)**********   1121.80    394.45
                             1121.80**********    781.52
                              394.45    781.521318507.07

     nonloc. stress (kbar)  -1759.29     -4.03     -1.85
                               -4.03  -1751.08     -2.38
                               -1.85     -2.38  -1815.78

     hartree stress (kbar) 690479.93   -369.37   -136.25
                             -369.37 688589.34   -316.87
                             -136.25   -316.87-612918.86

     exc-cor stress (kbar)  -8460.64     -2.99     -0.86
                               -2.99  -8459.20     -0.92
                               -0.86     -0.92  -8465.76

     corecor stress (kbar)   -160.73      1.56      0.49
                                1.56   -161.88      0.46
                                0.49      0.46   -163.68

     ewald   stress (kbar) 609068.56   -808.72   -269.03
                             -808.72 607201.44   -475.46
                             -269.03   -475.46-713215.09

     hubbard stress (kbar)      0.00      0.00      0.00
                                0.00      0.00      0.00
                                0.00      0.00      0.00

     DFT-D   stress (kbar)      0.00      0.00      0.00
                                0.00      0.00      0.00
                                0.00      0.00      0.00

     XDM     stress (kbar)      0.00      0.00      0.00
                                0.00      0.00      0.00
                                0.00      0.00      0.00

     dft-nl  stress (kbar)      0.00      0.00      0.00
                                0.00      0.00      0.00
                                0.00      0.00      0.00

     TS-vdW  stress (kbar)      0.00      0.00      0.00
                                0.00      0.00      0.00
                                0.00      0.00      0.00

     MDB     stress (kbar)      0.00      0.00      0.00
                                0.00      0.00      0.00
                                0.00      0.00      0.00

     3D-RISM stress (kbar)      0.00      0.00      0.00
                                0.00      0.00      0.00
                                0.00      0.00      0.00

     Energy error            =      9.6E-06 Ry
     Gradient error          =      4.7E-04 Ry/Bohr

     bfgs converged in 104 scf cycles and 102 bfgs steps
     (criteria: energy <  1.0E-05 Ry, force <  5.0E-04 Ry/Bohr)

     End of BFGS Geometry Optimization

     Final energy             =  -14944.1828073074 Ry

     File ./tmp/Zn002_2x2x4_relax_ecutrho250_ecutwfc25_ABN.bfgs deleted, as requested
Begin final coordinates

ATOMIC_POSITIONS (angstrom)
Zn              -0.0000000130        1.5094013740        1.2182902100    0   0   0
Zn              -0.0078988975        1.5082455562        6.2460992097
Zn              -1.3071799410        3.7735034240        1.2182902100    0   0   0
Zn              -1.3153569995        3.7706156763        6.2478015182
Zn              -2.6143598690        6.0376054730        1.2182902100    0   0   0
Zn              -2.6218732117        6.0354659652        6.2444889898
Zn              -3.9215397970        8.3017075230        1.2182902100    0   0   0
Zn              -3.9296329560        8.3004899911        6.2447283012
Zn               2.6143598430        1.5094013740        1.2182902100    0   0   0
Zn               2.6058994814        1.5080043417        6.2495873401
Zn               1.3071799150        3.7735034240        1.2182902100    0   0   0
Zn               1.2987820549        3.7689331576        6.2467959652
Zn              -0.0000000130        6.0376054730        1.2182902100    0   0   0
Zn              -0.0091762665        6.0354527292        6.2410389862
Zn              -1.3071799410        8.3017075230        1.2182902100    0   0   0
Zn              -1.3155579858        8.3007153407        6.2452802627
Zn               1.3071799410        0.7547006760        3.6548706290    0   0   0
Zn               1.2954183921        0.7419553144        8.8412344647
Zn               0.0000000130        3.0188027250        3.6548706290    0   0   0
Zn              -0.0120213743        3.0049686779        8.8445842423
Zn              -1.3071799150        5.2829047750        3.6548706290    0   0   0
Zn              -1.3189277100        5.2693303335        8.8390191217
Zn              -2.6143598430        7.5470068250        3.6548706290    0   0   0
Zn              -2.6263193236        7.5335398534        8.8384815472
Zn               3.9215397970        0.7547006760        3.6548706290    0   0   0
Zn               3.9099373675        0.7416799321        8.8314148752
Zn               2.6143598690        3.0188027250        3.6548706290    0   0   0
Zn               2.6031632454        3.0044690022        8.8282075427
Zn               1.3071799410        5.2829047750        3.6548706290    0   0   0
Zn               1.2940145130        5.2693249750        8.7797658303
Zn               0.0000000130        7.5470068250        3.6548706290    0   0   0
Zn              -0.0132294592        7.5338311496        8.8276288183
C                1.2532968655        4.4134510526       18.0509704009
C                1.3749558345        4.6277806466       16.6471123998
C                2.1944543567        3.7899886397       15.8604272279
C                0.6506129003        5.6571873973       16.0098200790
C                0.7524378799        5.8505420717       14.6392757734
C                2.2999056533        3.9869486536       14.4909999020
C                1.5833511678        5.0228196403       13.8547081762
N                1.1508818700        4.2345245964       19.2068209028
N                1.7347289146        5.2535907222       12.5009598729
H                1.0213654809        5.8115358493       12.0314019705
H                2.0983877619        4.4938344940       11.9252242773
H                2.7587545686        2.9865132370       16.3425341038
H                0.1742629312        6.6473752172       14.1590008019
H                2.9511920320        3.3362053102       13.8966664813
H               -0.0060359818        6.2982810662       16.6049392579
End final coordinates

     Writing all to output data dir ./tmp/Zn002_2x2x4_relax_ecutrho250_ecutwfc25_ABN.save/ :
     XML data file, charge density, pseudopotentials, collected wavefunctions

     General routines

     Parallel routines

     PAW routines

   This run was terminated on:  11: 3:28  17Mar2025

   JOB DONE.
Note: The following floating-point exceptions are signalling: IEEE_DENORMAL
Note: The following floating-point exceptions are signalling: IEEE_DENORMAL
Note: The following floating-point exceptions are signalling: IEEE_DENORMAL
Note: The following floating-point exceptions are signalling: IEEE_DENORMAL