     Program PWSCF v.7.3.1 starts on 10Mar2025 at 15:12: 1

     Waiting for input...
     Reading input from standard input
Warning: card &CELL ignored
Warning: card   CELL_DOFREE = 'ALL' ignored
Warning: card / ignored

     Current dimensions of program PWSCF are:
     Max number of different atomic species (ntypx) = 10
     Max number of k-points (npk) =  40000
     Max angular momentum in pseudopotentials (lmaxx) =  4
     Found identity + (  0.0000 -0.5000  0.0000) symmetry
     This is a supercell, fractional translations are disabled
     Message from routine setup:
     using ibrav=0 with symmetry is DISCOURAGED, use correct ibrav instead

     K-points division:     npool     =       4
     R & G space division:  proc/nbgrp/npool/nimage =       4
     Subspace diagonalization in iterative solution of the eigenvalue problem:
     one sub-group per band group will be used

     Using Slab Decomposition

     bravais-lattice index     =            0
     lattice parameter (alat)  =       9.8808  a.u.
     unit-cell volume          =    3015.5229 (a.u.)^3
     number of atoms/cell      =           16
     number of atomic types    =            1
     number of electrons       =       320.00
     number of Kohn-Sham states=          192
     kinetic-energy cutoff     =      50.0000  Ry
     charge density cutoff     =     400.0000  Ry
     scf convergence threshold =      7.3E-07
     mixing beta               =       0.7000
     number of iterations used =            8  plain     mixing
     energy convergence thresh.=      1.0E-05
     force convergence thresh. =      5.0E-04
     Exchange-correlation= SLA  PW   PBE  PBE
                           (   1   4   3   4   0   0   0)
     nstep                     =          100

     celldm(1)=   9.880849  celldm(2)=   0.000000  celldm(3)=   0.000000
     celldm(4)=   0.000000  celldm(5)=   0.000000  celldm(6)=   0.000000

     crystal axes: (cart. coord. in units of alat)
               a(1) = (   1.000000   0.000000   0.000000 )
               a(2) = (  -0.500000   0.866025   0.000000 )
               a(3) = (   0.000000   0.000000   3.609518 )

     reciprocal axes: (cart. coord. in units 2 pi/alat)
               b(1) = (  1.000000  0.577350 -0.000000 )
               b(2) = (  0.000000  1.154701  0.000000 )
               b(3) = (  0.000000 -0.000000  0.277045 )

     PseudoPot. # 1 for Zn read from file:
     /home/ys/qepseudo/SSSP_1.3.0_PBE_efficiency/Zn_pbe_v1.uspp.F.UPF
     MD5 check sum: df62231357ef9e81f77b2b3087fa5675
     Pseudo is Ultrasoft, Zval = 20.0
     Generated by new atomic code, or converted to UPF format
     Using radial grid of  943 points,  6 beta functions with:
                l(1) =   0
                l(2) =   0
                l(3) =   1
                l(4) =   1
                l(5) =   2
                l(6) =   2
     Q(r) pseudized with  8 coefficients,  rinner =    1.100   1.100   1.100
                                                       1.100   1.100

     atomic species   valence    mass     pseudopotential
     Zn               20.00    65.38000     Zn( 1.00)

     12 Sym. Ops. (no inversion) found

                                    s                        frac. trans.

      isym =  1     identity

 cryst.   s( 1) = (     1          0          0      )
                  (     0          1          0      )
                  (     0          0          1      )

 cart.    s( 1) = (  1.0000000  0.0000000  0.0000000 )
                  (  0.0000000  1.0000000  0.0000000 )
                  (  0.0000000  0.0000000  1.0000000 )

      isym =  2     180 deg rotation - cart. axis [0,0,1]

[...]

      isym =  3      60 deg rotation - cryst. axis [0,0,1]

[...]

      isym =  6     120 deg rotation - cryst. axis [0,0,-1]

[...]

      isym =  7     inv. 180 deg rotation - cart. axis [0,1,0]

[...]

      isym =  8     inv. 180 deg rotation - cart. axis [1,0,0]

[...]

      isym =  9     inv. 180 deg rotation - cryst. axis [1,-1,0]

 cryst.   s( 9) = (     0          1          0      )
                  (     1          0          0      )
                  (     0          0          1      )

 cart.    s( 9) = ( -0.5000000  0.8660255  0.0000000 )
                  (  0.8660253  0.5000000  0.0000000 )
                  (  0.0000000  0.0000000  1.0000000 )

[...]

 cryst.   s(10) = (    -1         -1          0      )
                  (     0          1          0      )
                  (     0          0          1      )

 cart.    s(10) = ( -0.5000000 -0.8660254  0.0000000 )
                  ( -0.8660253  0.5000000  0.0000000 )
                  (  0.0000000  0.0000000  1.0000000 )

[...]

      isym = 12     inv. 180 deg rotation - cryst. axis [1,1,0]

 cryst.   s(12) = (     0         -1          0      )
                  (    -1          0          0      )
                  (     0          0          1      )

 cart.    s(12) = (  0.5000000 -0.8660255  0.0000000 )
                  ( -0.8660253 -0.5000000  0.0000000 )
                  (  0.0000000  0.0000000  1.0000000 )

   Cartesian axes

     site n.     atom                  positions (alat units)
         1        Zn     tau(   1) = (   0.0000000   0.2886751   0.2329997  )
         2        Zn     tau(   2) = (   0.0000000   0.2886751   0.6989991  )
         3        Zn     tau(   3) = (  -0.2500000   0.7216878   0.2329997  )
         4        Zn     tau(   4) = (  -0.2500000   0.7216878   0.6989991  )
         5        Zn     tau(   5) = (   0.5000000   0.2886751   0.2329997  )
         6        Zn     tau(   6) = (   0.5000000   0.2886751   0.6989991  )
         7        Zn     tau(   7) = (   0.2500000   0.7216878   0.2329997  )
         8        Zn     tau(   8) = (   0.2500000   0.7216878   0.6989991  )
         9        Zn     tau(   9) = (   0.2500000   0.1443376   0.2329997  )
        10        Zn     tau(  10) = (   0.2500000   0.1443376   0.6989991  )
        11        Zn     tau(  11) = (   0.0000000   0.5773502   0.2329997  )
        12        Zn     tau(  12) = (   0.0000000   0.5773502   0.6989991  )
        13        Zn     tau(  13) = (   0.7500000   0.1443376   0.2329997  )
        14        Zn     tau(  14) = (   0.7500000   0.1443376   0.6989991  )
        15        Zn     tau(  15) = (   0.5000000   0.5773502   0.2329997  )
        16        Zn     tau(  16) = (   0.5000000   0.5773502   0.6989991  )

   Crystallographic axes

     site n.     atom                  positions (cryst. coord.)
         1        Zn     tau(   1) = (  0.1666667  0.3333333  0.0645515  )
         2        Zn     tau(   2) = (  0.1666667  0.3333333  0.1936544  )
         3        Zn     tau(   3) = (  0.1666667  0.8333333  0.0645515  )
         4        Zn     tau(   4) = (  0.1666667  0.8333333  0.1936544  )
         5        Zn     tau(   5) = (  0.6666667  0.3333333  0.0645515  )
         6        Zn     tau(   6) = (  0.6666667  0.3333333  0.1936544  )
         7        Zn     tau(   7) = (  0.6666667  0.8333333  0.0645515  )
         8        Zn     tau(   8) = (  0.6666667  0.8333333  0.1936544  )
         9        Zn     tau(   9) = (  0.3333333  0.1666667  0.0645515  )
        10        Zn     tau(  10) = (  0.3333333  0.1666667  0.1936544  )
        11        Zn     tau(  11) = (  0.3333333  0.6666667  0.0645515  )
        12        Zn     tau(  12) = (  0.3333333  0.6666667  0.1936544  )
        13        Zn     tau(  13) = (  0.8333333  0.1666667  0.0645515  )
        14        Zn     tau(  14) = (  0.8333333  0.1666667  0.1936544  )
        15        Zn     tau(  15) = (  0.8333333  0.6666667  0.0645515  )
        16        Zn     tau(  16) = (  0.8333333  0.6666667  0.1936544  )

     number of k points=    12  Marzari-Vanderbilt smearing, width (Ry)=  0.0200
                       cart. coord. in units 2pi/alat
        k(    1) = (   0.0000000   0.0000000   0.0000000), wk =   0.0312500
        k(    2) = (   0.0000000   0.0000000   0.0692613), wk =   0.0625000
        k(    3) = (   0.0000000   0.0000000  -0.1385226), wk =   0.0312500
        k(    4) = (   0.0000000   0.2886752   0.0000000), wk =   0.1875000
        k(    5) = (   0.0000000   0.2886752   0.0692613), wk =   0.3750000
        k(    6) = (   0.0000000   0.2886752  -0.1385226), wk =   0.1875000
        k(    7) = (   0.0000000  -0.5773503   0.0000000), wk =   0.0937500
        k(    8) = (   0.0000000  -0.5773503   0.0692613), wk =   0.1875000
        k(    9) = (   0.0000000  -0.5773503  -0.1385226), wk =   0.0937500
        k(   10) = (   0.2500000   0.4330127   0.0000000), wk =   0.1875000
        k(   11) = (   0.2500000   0.4330127   0.0692613), wk =   0.3750000
        k(   12) = (   0.2500000   0.4330127  -0.1385226), wk =   0.1875000

                       cryst. coord.
        k(    1) = (   0.0000000   0.0000000   0.0000000), wk =   0.0312500
        k(    2) = (   0.0000000   0.0000000   0.2500000), wk =   0.0625000
        k(    3) = (   0.0000000   0.0000000  -0.5000000), wk =   0.0312500
        k(    4) = (   0.0000000   0.2500000   0.0000000), wk =   0.1875000
        k(    5) = (   0.0000000   0.2500000   0.2500000), wk =   0.3750000
        k(    6) = (   0.0000000   0.2500000  -0.5000000), wk =   0.1875000
        k(    7) = (   0.0000000  -0.5000000   0.0000000), wk =   0.0937500
        k(    8) = (   0.0000000  -0.5000000   0.2500000), wk =   0.1875000
        k(    9) = (   0.0000000  -0.5000000  -0.5000000), wk =   0.0937500
        k(   10) = (   0.2500000   0.2500000   0.0000000), wk =   0.1875000
        k(   11) = (   0.2500000   0.2500000   0.2500000), wk =   0.3750000
        k(   12) = (   0.2500000   0.2500000  -0.5000000), wk =   0.1875000

     Initial potential from superposition of free atoms

     starting charge     319.9977, renormalised to     320.0000

     negative rho (up, down):  4.585E-04 0.000E+00
     Starting wfcs are  208 randomized atomic wfcs
[psid02:118894] Set MCA parameter "orte_base_help_aggregate" to 0 to see all help / error messages

     Self-consistent Calculation

     iteration #  1     ecut=    50.00 Ry     beta= 0.70
     Davidson diagonalization with overlap

     ethr =  1.00E-02,  avg # of iterations =  7.2

     Threshold (ethr) on eigenvalues was too large:
     Diagonalizing with lowered threshold

     Davidson diagonalization with overlap

[...]

     negative rho (up, down):  1.779E-04 0.000E+00

     total energy              =   -7364.75924357 Ry
     estimated scf accuracy    <       0.19476241 Ry

[...]

     End of self-consistent calculation

          k = 0.0000 0.0000 0.0000 ( 17973 PWs)   bands (ev):

  -127.3673-127.3641-126.6904-126.6904-126.6904-126.6877-126.6877-126.6877
  -125.9999-125.9999-125.9998-125.9975-125.9975-125.9975-125.2902-125.2882
   -83.2197 -83.2196 -83.2196 -83.2159 -83.2159 -83.2159 -82.8641 -82.8641
   -82.8606 -82.8606 -82.0364 -82.0363 -82.0363 -82.0331 -82.0331 -82.0331
   -80.4593 -80.4207 -80.0957 -80.0957 -80.0957 -80.0943 -80.0942 -80.0942
   -80.0806 -80.0806 -80.0806 -80.0475 -80.0475 -80.0474 -79.7026 -79.7026
   -79.7026 -79.6750 -79.6750 -79.6749 -79.3232 -79.3013 -79.2450 -79.2450
[...]
     2.1347   2.4286   3.3431   3.6778   4.3752   4.3934   4.8304   4.8498
     5.3222   5.6226   6.6318   7.2445   7.9128   8.0719   8.0821   8.8641
     9.4305   9.4916   9.9108   9.9664  10.4453  10.5501  10.7214  10.8827
    11.0050  11.0358  11.3979  11.7868  11.8463  12.1559  12.4030  12.4708
    12.5842  12.8947  13.0681  13.6012  13.6222  13.8159  13.8844  14.0726

     occupation numbers
     1.0000   1.0000   1.0000   1.0000   1.0000   1.0000   1.0000   1.0000
     1.0000   1.0000   1.0000   1.0000   1.0000   1.0000   1.0000   1.0000
     1.0000   1.0000   1.0000   1.0000   1.0000   1.0000   1.0000   1.0000
     1.0000   1.0000   1.0000   1.0000   1.0000   1.0000   1.0000   1.0000
     1.0000   1.0000   1.0000   1.0000   1.0000   1.0000   1.0000   1.0000
     1.0000   1.0000   1.0000   1.0000   1.0000   1.0000   1.0000   1.0000
     1.0000   1.0000   1.0000   1.0000   1.0000   1.0000   1.0000   1.0000
     1.0000   1.0000   1.0000   1.0000   1.0000   1.0000   1.0000   1.0000
     1.0000   1.0000   1.0000   1.0000   1.0000   1.0000   1.0000   1.0000
     1.0000   1.0000   1.0000   1.0000   1.0000   1.0000   1.0000   1.0000
     1.0000   1.0000   1.0000   1.0000   1.0000   1.0000   1.0000   1.0000
     1.0000   1.0000   1.0000   1.0000   1.0000   1.0000   1.0000   1.0000
     1.0000   1.0000   1.0000   1.0000   1.0000   1.0000   1.0000   1.0000
     1.0000   1.0000   1.0000   1.0000   1.0000   1.0000   1.0000   1.0000
     1.0000   1.0000   1.0000   1.0000   1.0000   1.0000   1.0000   1.0000
     1.0000   1.0000   1.0000   1.0000   1.0000   1.0000   1.0000   1.0000
     1.0000   1.0000   1.0000   1.0000   1.0000   1.0000   1.0000   1.0000
     1.0000   1.0000   1.0000   1.0000   1.0000   1.0000   1.0000   1.0000
     1.0000   1.0000   1.0000   1.0000   1.0000   1.0000   1.0000   1.0000
     1.0000   1.0000   1.0000   1.0000   1.0000   1.0000   1.0126   1.0158
     0.8557   0.1478   0.0000   0.0000   0.0000   0.0000   0.0000   0.0000
     0.0000   0.0000   0.0000   0.0000   0.0000   0.0000   0.0000   0.0000
     0.0000   0.0000   0.0000   0.0000   0.0000   0.0000   0.0000   0.0000
     0.0000   0.0000   0.0000   0.0000   0.0000   0.0000   0.0000   0.0000

     the Fermi energy is     5.4947 ev

!    total energy              =   -7373.37451425 Ry
     estimated scf accuracy    <          4.9E-10 Ry
     smearing contrib. (-TS)   =      -0.00642155 Ry
     internal energy E=F+TS    =   -7373.36809270 Ry

     The total energy is F=E-TS. E is the sum of the following terms:
     one-electron contribution =  -21550.91787761 Ry
     hartree contribution      =   10768.18025078 Ry
     xc contribution           =    -682.52221702 Ry
     ewald contribution        =    4091.89175116 Ry

     convergence has been achieved in   7 iterations

     Forces acting on atoms (cartesian axes, Ry/au):

     atom    1 type  1   force =     0.00000000    0.00014471    0.00023992
     atom    2 type  1   force =    -0.00000000   -0.00008114   -0.00033041
     atom    3 type  1   force =     0.00012532   -0.00007236    0.00023992
     atom    4 type  1   force =    -0.00007027    0.00004057   -0.00033041
     atom    5 type  1   force =     0.00000000    0.00000000    0.00024127
     atom    6 type  1   force =     0.00000000    0.00000000    0.00003019
     atom    7 type  1   force =    -0.00012532   -0.00007236    0.00023992
     atom    8 type  1   force =     0.00007027    0.00004057   -0.00033041
     atom    9 type  1   force =     0.00012532    0.00007236    0.00023992
     atom   10 type  1   force =    -0.00007027   -0.00004057   -0.00033041
     atom   11 type  1   force =     0.00000000   -0.00000000    0.00024127
     atom   12 type  1   force =     0.00000000   -0.00000000    0.00003019
     atom   13 type  1   force =    -0.00012532    0.00007236    0.00023992
     atom   14 type  1   force =     0.00007027   -0.00004057   -0.00033041
     atom   15 type  1   force =    -0.00000000   -0.00014471    0.00023992
     atom   16 type  1   force =    -0.00000000    0.00008114   -0.00033041
     The non-local contrib.  to forces
     atom    1 type  1   force =     0.00000000   -0.00057680    0.00223504
     atom    2 type  1   force =     0.00000000   -0.16443602   -0.02054095
     atom    3 type  1   force =    -0.00049952    0.00028840    0.00223504
     atom    4 type  1   force =    -0.14240576    0.08221802   -0.02054095
     atom    5 type  1   force =     0.00000000   -0.00000000    0.00291374
     atom    6 type  1   force =    -0.00000000    0.00000000    0.08833886
     atom    7 type  1   force =     0.00049952    0.00028840    0.00223504
     atom    8 type  1   force =     0.14240576    0.08221800   -0.02054095
     atom    9 type  1   force =    -0.00049952   -0.00028840    0.00223504
     atom   10 type  1   force =    -0.14240576   -0.08221800   -0.02054095
     atom   11 type  1   force =     0.00000000    0.00000000    0.00291374
     atom   12 type  1   force =     0.00000000   -0.00000000    0.08833886
     atom   13 type  1   force =     0.00049952   -0.00028840    0.00223504
     atom   14 type  1   force =     0.14240576   -0.08221802   -0.02054095
     atom   15 type  1   force =     0.00000000    0.00057680    0.00223504
     atom   16 type  1   force =     0.00000000    0.16443602   -0.02054095
     The ionic contribution  to forces
     atom    1 type  1   force =    -0.00000610   -0.24195965 -119.59779850
     atom    2 type  1   force =     0.00000435  -23.91191958  165.47660621
     atom    3 type  1   force =    -0.20953273    0.12095058 -119.59779853
     atom    4 type  1   force =   -20.70832165   11.95595856  165.47660611
     atom    5 type  1   force =    -0.00000626   -0.00001930 -119.88497394
     atom    6 type  1   force =     0.00000279    0.00000411  -17.75144925
     atom    7 type  1   force =     0.20952020    0.12095057 -119.59779858
     atom    8 type  1   force =    20.70831831   11.95594953  165.47660648
     atom    9 type  1   force =    -0.20952029   -0.12095051 -119.59779858
     atom   10 type  1   force =   -20.70831836  -11.95594952  165.47660648
     atom   11 type  1   force =     0.00000626    0.00001930 -119.88497394
     atom   12 type  1   force =    -0.00000279   -0.00000411  -17.75144925
     atom   13 type  1   force =     0.20953264   -0.12095064 -119.59779853
     atom   14 type  1   force =    20.70832160  -11.95595857  165.47660611
     atom   15 type  1   force =     0.00000629    0.24195965 -119.59779850
     atom   16 type  1   force =    -0.00000424   23.91191958  165.47660621
     The local contribution  to forces
     atom    1 type  1   force =     0.00002140    0.24266611  119.59586264
     atom    2 type  1   force =     0.00003908   24.07627196 -165.45639765
     atom    3 type  1   force =     0.21017158   -0.12132655  119.59586267
     atom    4 type  1   force =    20.85073519  -12.03812406 -165.45639766
     atom    5 type  1   force =     0.00002033    0.00000449  119.88236178
     atom    6 type  1   force =     0.00001277   -0.00001348   17.66305466
     atom    7 type  1   force =    -0.21013059   -0.12132657  119.59586272
     atom    8 type  1   force =   -20.85072229  -12.03815850 -165.45639787
     atom    9 type  1   force =     0.21012995    0.12132584  119.59586272
     atom   10 type  1   force =    20.85072160   12.03815772 -165.45639790
     atom   11 type  1   force =    -0.00002096   -0.00000522  119.88236178
     atom   12 type  1   force =    -0.00001350    0.00001263   17.66305466
     atom   13 type  1   force =    -0.21017221    0.12132582  119.59586267
     atom   14 type  1   force =   -20.85073585   12.03812330 -165.45639766
     atom   15 type  1   force =    -0.00002098   -0.24266685  119.59586264
     atom   16 type  1   force =    -0.00003864  -24.07627275 -165.45639764
     The core correction contribution to forces
     atom    1 type  1   force =     0.00000000    0.00000000    0.00000000
     atom    2 type  1   force =     0.00000000    0.00000000    0.00000000
     atom    3 type  1   force =     0.00000000    0.00000000    0.00000000
     atom    4 type  1   force =     0.00000000    0.00000000    0.00000000
     atom    5 type  1   force =     0.00000000    0.00000000    0.00000000
     atom    6 type  1   force =     0.00000000    0.00000000    0.00000000
     atom    7 type  1   force =     0.00000000    0.00000000    0.00000000
     atom    8 type  1   force =     0.00000000    0.00000000    0.00000000
     atom    9 type  1   force =     0.00000000    0.00000000    0.00000000
     atom   10 type  1   force =     0.00000000    0.00000000    0.00000000
     atom   11 type  1   force =     0.00000000    0.00000000    0.00000000
     atom   12 type  1   force =     0.00000000    0.00000000    0.00000000
     atom   13 type  1   force =     0.00000000    0.00000000    0.00000000
     atom   14 type  1   force =     0.00000000    0.00000000    0.00000000
     atom   15 type  1   force =     0.00000000    0.00000000    0.00000000
     atom   16 type  1   force =     0.00000000    0.00000000    0.00000000
     The Hubbard contrib.    to forces
     atom    1 type  1   force =     0.00000000    0.00000000    0.00000000
     atom    2 type  1   force =     0.00000000    0.00000000    0.00000000
     atom    3 type  1   force =     0.00000000    0.00000000    0.00000000
     atom    4 type  1   force =     0.00000000    0.00000000    0.00000000
     atom    5 type  1   force =     0.00000000    0.00000000    0.00000000
     atom    6 type  1   force =     0.00000000    0.00000000    0.00000000
     atom    7 type  1   force =     0.00000000    0.00000000    0.00000000
     atom    8 type  1   force =     0.00000000    0.00000000    0.00000000
     atom    9 type  1   force =     0.00000000    0.00000000    0.00000000
     atom   10 type  1   force =     0.00000000    0.00000000    0.00000000
     atom   11 type  1   force =     0.00000000    0.00000000    0.00000000
     atom   12 type  1   force =     0.00000000    0.00000000    0.00000000
     atom   13 type  1   force =     0.00000000    0.00000000    0.00000000
     atom   14 type  1   force =     0.00000000    0.00000000    0.00000000
     atom   15 type  1   force =     0.00000000    0.00000000    0.00000000
     atom   16 type  1   force =     0.00000000    0.00000000    0.00000000
     The SCF correction term to forces
     atom    1 type  1   force =    -0.00000000    0.00000000   -0.00000000
     atom    2 type  1   force =    -0.00000000   -0.00004473   -0.00002230
     atom    3 type  1   force =     0.00000000   -0.00000000   -0.00000000
     atom    4 type  1   force =    -0.00003874    0.00002236   -0.00002230
     atom    5 type  1   force =    -0.00000000    0.00000000   -0.00000000
     atom    6 type  1   force =     0.00000000    0.00000000    0.00006161
     atom    7 type  1   force =    -0.00000000   -0.00000000   -0.00000000
     atom    8 type  1   force =     0.00003874    0.00002237   -0.00002230
     atom    9 type  1   force =     0.00000000    0.00000000   -0.00000000
     atom   10 type  1   force =    -0.00003874   -0.00002237   -0.00002230
     atom   11 type  1   force =     0.00000000   -0.00000000   -0.00000000
     atom   12 type  1   force =    -0.00000000   -0.00000000    0.00006161
     atom   13 type  1   force =    -0.00000000    0.00000000   -0.00000000
     atom   14 type  1   force =     0.00003874   -0.00002236   -0.00002230
     atom   15 type  1   force =     0.00000000   -0.00000000   -0.00000000
     atom   16 type  1   force =     0.00000000    0.00004473   -0.00002230

     Total force =     0.000834     Total SCF correction =     0.000150
     SCF correction compared to forces is large: reduce conv_thr to get better values

     Computing stress (Cartesian axis) and pressure

          total   stress  (Ry/bohr**3)                   (kbar)     P=     1268.99
   0.01296042  -0.00000000  -0.00000000         1906.54       -0.00       -0.00
  -0.00000000   0.01296042  -0.00000000           -0.00     1906.54       -0.00
  -0.00000000  -0.00000000  -0.00004165           -0.00       -0.00       -6.13

     kinetic stress (kbar)  21482.97     -0.00      0.00
                               -0.00  21482.97     -0.00
                                0.00     -0.00  21695.89

     local   stress (kbar)-813339.90     -0.00     -0.00
                               -0.00-813339.90      0.00
                               -0.00      0.00 878481.72

     nonloc. stress (kbar)  -2013.10      0.00      0.00
                                0.00  -2013.10      0.00
                                0.00      0.00  -1561.89

     hartree stress (kbar) 445205.70      0.00      0.00
                                0.00 445205.70      0.00
                                0.00      0.00-365111.47

     exc-cor stress (kbar) -10642.98      0.00     -0.00
                                0.00 -10642.98     -0.00
                               -0.00     -0.00 -10695.83

     corecor stress (kbar)      0.00      0.00      0.00
                                0.00      0.00      0.00
                                0.00      0.00      0.00

     ewald   stress (kbar) 361213.85      0.00      0.00
                                0.00 361213.86     -0.00
                                0.00     -0.00-522814.55

     hubbard stress (kbar)      0.00      0.00      0.00
                                0.00      0.00      0.00
                                0.00      0.00      0.00

     DFT-D   stress (kbar)      0.00      0.00      0.00
                                0.00      0.00      0.00
                                0.00      0.00      0.00

     XDM     stress (kbar)      0.00      0.00      0.00
                                0.00      0.00      0.00
                                0.00      0.00      0.00

     dft-nl  stress (kbar)      0.00      0.00      0.00
                                0.00      0.00      0.00
                                0.00      0.00      0.00

     TS-vdW  stress (kbar)      0.00      0.00      0.00
                                0.00      0.00      0.00
                                0.00      0.00      0.00

     MDB     stress (kbar)      0.00      0.00      0.00
                                0.00      0.00      0.00
                                0.00      0.00      0.00

     3D-RISM stress (kbar)      0.00      0.00      0.00
                                0.00      0.00      0.00
                                0.00      0.00      0.00

     Energy error            =      4.5E-06 Ry
     Gradient error          =      3.3E-04 Ry/Bohr

     bfgs converged in  36 scf cycles and  34 bfgs steps
     (criteria: energy <  1.0E-05 Ry, force <  5.0E-04 Ry/Bohr)

     End of BFGS Geometry Optimization

     Final energy             =   -7373.3745142455 Ry

     File ./tmp/Zn002_3x3x2_relax.bfgs deleted, as requested
Begin final coordinates

ATOMIC_POSITIONS (angstrom)
Zn               0.0000000660        1.5094013740        1.2182902100    0   0   0
Zn               0.0000000660        1.8665345418        9.0112069686
Zn              -1.3071798610        3.7735034240        1.2182902100    0   0   0
Zn              -0.9978934933        3.5949368238        9.0112069686
Zn               2.6143601610        1.5094013740        1.2182902100    0   0   0
Zn               2.6143601610        1.5094013740        6.0881963345
Zn               1.3071802330        3.7735034240        1.2182902100    0   0   0
Zn               0.9978938653        3.5949368564        9.0112069686
Zn               1.3071801000        0.7547006760        1.2182902100    0   0   0
Zn               1.6164664677        0.9332672436        9.0112069686
Zn               0.0000001720        3.0188027260        1.2182902100    0   0   0
Zn               0.0000001720        3.0188027260        6.0881963345
Zn               3.9215401940        0.7547006760        1.2182902100    0   0   0
Zn               3.6122538263        0.9332672762        9.0112069686
Zn               2.6143602660        3.0188027260        1.2182902100    0   0   0
Zn               2.6143602660        2.6616695582        9.0112069686
End final coordinates

     Writing all to output data dir ./tmp/Zn002_3x3x2_relax.save/ :
     XML data file, charge density, pseudopotentials, collected wavefunctions

     General routines

     Parallel routines

   This run was terminated on:  18:31: 8  10Mar2025

   JOB DONE.
Note: The following floating-point exceptions are signalling: IEEE_DENORMAL
Note: The following floating-point exceptions are signalling: IEEE_DENORMAL
Note: The following floating-point exceptions are signalling: IEEE_DENORMAL
Note: The following floating-point exceptions are signalling: IEEE_DENORMAL