     Program PWSCF v.7.3.1 starts on 18Jan1998 at 23:27:16

     Waiting for input...
     Reading input from standard input
Warning: card &CELL ignored
Warning: card   CELL_DOFREE = 'ALL' ignored
Warning: card / ignored

     Current dimensions of program PWSCF are:
     Max number of different atomic species (ntypx) = 10
     Max number of k-points (npk) =  40000
     Max angular momentum in pseudopotentials (lmaxx) =  4
     Found identity + (  0.0000 -0.5000  0.0000) symmetry
     This is a supercell, fractional translations are disabled

     K-points division:     npool     =       4
     R & G space division:  proc/nbgrp/npool/nimage =       4
     Subspace diagonalization in iterative solution of the eigenvalue problem:
     a serial algorithm will be used

     Using Slab Decomposition

     bravais-lattice index     =            0
     lattice parameter (alat)  =      18.4179  a.u.
     unit-cell volume          =    5593.2314 (a.u.)^3
     number of atoms/cell      =            8
     number of atomic types    =            1
     number of electrons       =       160.00
     number of Kohn-Sham states=           96
     kinetic-energy cutoff     =      50.0000  Ry
     charge density cutoff     =     400.0000  Ry
     scf convergence threshold =      7.3E-07
     mixing beta               =       0.7000
     number of iterations used =            8  plain     mixing
     energy convergence thresh.=      1.0E-05
     force convergence thresh. =      5.0E-04
     Exchange-correlation= SLA  PW   PBE  PBE
                           (   1   4   3   4   0   0   0)
     nstep                     =          100

     celldm(1)=  18.417879  celldm(2)=   0.000000  celldm(3)=   0.000000
     celldm(4)=   0.000000  celldm(5)=   0.000000  celldm(6)=   0.000000

     crystal axes: (cart. coord. in units of alat)
               a(1) = (   1.000000   0.000000   0.000000 )
               a(2) = (   0.000000   0.536481   0.000000 )
               a(3) = (   0.000000  -0.963450   1.668743 )

     reciprocal axes: (cart. coord. in units 2 pi/alat)
               b(1) = (  1.000000  0.000000 -0.000000 )
               b(2) = ( -0.000000  1.863998  1.076180 )
               b(3) = (  0.000000  0.000000  0.599254 )

     PseudoPot. # 1 for Zn read from file:
     /home/ys/qepseudo/SSSP_1.3.0_PBE_efficiency/Zn_pbe_v1.uspp.F.UPF
     MD5 check sum: df62231357ef9e81f77b2b3087fa5675
     Pseudo is Ultrasoft, Zval = 20.0
     Generated by new atomic code, or converted to UPF format
     Using radial grid of  943 points,  6 beta functions with:
                l(1) =   0
                l(2) =   0
                l(3) =   1
                l(4) =   1
                l(5) =   2
                l(6) =   2
     Q(r) pseudized with  8 coefficients,  rinner =    1.100   1.100   1.100
                                                       1.100   1.100

     atomic species   valence    mass     pseudopotential
     Zn               20.00    65.38000     Zn( 1.00)

     No symmetry found

                                    s                        frac. trans.

      isym =  1     identity

 cryst.   s( 1) = (     1          0          0      )
                  (     0          1          0      )
                  (     0          0          1      )

 cart.    s( 1) = (  1.0000000  0.0000000  0.0000000 )
                  (  0.0000000  1.0000000  0.0000000 )
                  (  0.0000000  0.0000000  1.0000000 )

   Cartesian axes

     site n.     atom                  positions (alat units)
         1        Zn     tau(   1) = (   0.1250000   0.1341203   0.0774344  )
         2        Zn     tau(   2) = (   0.1250000   0.4023610   0.0774344  )
         3        Zn     tau(   3) = (   0.6250000   0.1341203   0.0774344  )
         4        Zn     tau(   4) = (   0.6250000   0.4023610   0.0774344  )
         5        Zn     tau(   5) = (   0.3750000  -0.0000000   0.1548688  )
         6        Zn     tau(   6) = (   0.3750000   0.2682407   0.1548688  )
         7        Zn     tau(   7) = (   0.8750000  -0.0000000   0.1548688  )
         8        Zn     tau(   8) = (   0.8750000   0.2682407   0.1548688  )

   Crystallographic axes

     site n.     atom                  positions (cryst. coord.)
         1        Zn     tau(   1) = (  0.1250000  0.3333334  0.0464029  )
         2        Zn     tau(   2) = (  0.1250000  0.8333334  0.0464029  )
         3        Zn     tau(   3) = (  0.6250000  0.3333334  0.0464029  )
         4        Zn     tau(   4) = (  0.6250000  0.8333334  0.0464029  )
         5        Zn     tau(   5) = (  0.3750000  0.1666668  0.0928057  )
         6        Zn     tau(   6) = (  0.3750000  0.6666668  0.0928057  )
         7        Zn     tau(   7) = (  0.8750000  0.1666668  0.0928057  )
         8        Zn     tau(   8) = (  0.8750000  0.6666668  0.0928057  )

     number of k points=    36  Marzari-Vanderbilt smearing, width (Ry)=  0.0200
                       cart. coord. in units 2pi/alat
        k(    1) = (   0.0000000   0.0000000   0.0000000), wk =   0.0312500
        k(    2) = (   0.0000000   0.0000000   0.1498134), wk =   0.0625000
        k(    3) = (   0.0000000   0.0000000  -0.2996268), wk =   0.0312500
        k(    4) = (   0.0000000   0.4659994   0.2690451), wk =   0.0625000
        k(    5) = (   0.0000000   0.4659994   0.4188585), wk =   0.0625000
        k(    6) = (   0.0000000   0.4659994  -0.0305817), wk =   0.0625000
        k(    7) = (   0.0000000   0.4659994   0.1192317), wk =   0.0625000
        k(    8) = (   0.0000000  -0.9319989  -0.5380901), wk =   0.0312500
        k(    9) = (   0.0000000  -0.9319989  -0.3882767), wk =   0.0625000
        k(   10) = (   0.0000000  -0.9319989  -0.8377169), wk =   0.0312500
        k(   11) = (   0.2500000   0.0000000   0.0000000), wk =   0.0625000
        k(   12) = (   0.2500000   0.0000000   0.1498134), wk =   0.0625000
        k(   13) = (   0.2500000   0.0000000  -0.2996268), wk =   0.0625000
        k(   14) = (   0.2500000   0.4659994   0.2690451), wk =   0.0625000
        k(   15) = (   0.2500000   0.4659994   0.4188585), wk =   0.0625000
        k(   16) = (   0.2500000   0.4659994  -0.0305817), wk =   0.0625000
        k(   17) = (   0.2500000   0.4659994   0.1192317), wk =   0.0625000
        k(   18) = (   0.2500000  -0.9319989  -0.5380901), wk =   0.0625000
        k(   19) = (   0.2500000  -0.9319989  -0.3882767), wk =   0.0625000
        k(   20) = (   0.2500000  -0.9319989  -0.8377169), wk =   0.0625000
        k(   21) = (  -0.5000000   0.0000000   0.0000000), wk =   0.0312500
        k(   22) = (  -0.5000000   0.0000000   0.1498134), wk =   0.0625000
        k(   23) = (  -0.5000000   0.0000000  -0.2996268), wk =   0.0312500
        k(   24) = (  -0.5000000   0.4659994   0.2690451), wk =   0.0625000
        k(   25) = (  -0.5000000   0.4659994   0.4188585), wk =   0.0625000
        k(   26) = (  -0.5000000   0.4659994  -0.0305817), wk =   0.0625000
        k(   27) = (  -0.5000000   0.4659994   0.1192317), wk =   0.0625000
        k(   28) = (  -0.5000000  -0.9319989  -0.5380901), wk =   0.0312500
        k(   29) = (  -0.5000000  -0.9319989  -0.3882767), wk =   0.0625000
        k(   30) = (  -0.5000000  -0.9319989  -0.8377169), wk =   0.0312500
        k(   31) = (   0.2500000   0.0000000  -0.1498134), wk =   0.0625000
        k(   32) = (   0.2500000  -0.4659994  -0.2690451), wk =   0.0625000
        k(   33) = (   0.2500000  -0.4659994  -0.4188585), wk =   0.0625000
        k(   34) = (   0.2500000  -0.4659994   0.0305817), wk =   0.0625000
        k(   35) = (   0.2500000  -0.4659994  -0.1192317), wk =   0.0625000
        k(   36) = (   0.2500000   0.9319989   0.3882767), wk =   0.0625000

                       cryst. coord.
        k(    1) = (   0.0000000   0.0000000   0.0000000), wk =   0.0312500
        k(    2) = (   0.0000000   0.0000000   0.2500000), wk =   0.0625000
        k(    3) = (   0.0000000   0.0000000  -0.5000000), wk =   0.0312500
        k(    4) = (   0.0000000   0.2500000   0.0000000), wk =   0.0625000
        k(    5) = (   0.0000000   0.2500000   0.2500000), wk =   0.0625000
        k(    6) = (   0.0000000   0.2500000  -0.5000000), wk =   0.0625000
        k(    7) = (   0.0000000   0.2500000  -0.2500000), wk =   0.0625000
        k(    8) = (   0.0000000  -0.5000000   0.0000000), wk =   0.0312500
        k(    9) = (   0.0000000  -0.5000000   0.2500000), wk =   0.0625000
        k(   10) = (   0.0000000  -0.5000000  -0.5000000), wk =   0.0312500
        k(   11) = (   0.2500000   0.0000000   0.0000000), wk =   0.0625000
        k(   12) = (   0.2500000   0.0000000   0.2500000), wk =   0.0625000
        k(   13) = (   0.2500000   0.0000000  -0.5000000), wk =   0.0625000
        k(   14) = (   0.2500000   0.2500000   0.0000000), wk =   0.0625000
        k(   15) = (   0.2500000   0.2500000   0.2500000), wk =   0.0625000
        k(   16) = (   0.2500000   0.2500000  -0.5000000), wk =   0.0625000
        k(   17) = (   0.2500000   0.2500000  -0.2500000), wk =   0.0625000
        k(   18) = (   0.2500000  -0.5000000   0.0000000), wk =   0.0625000
        k(   19) = (   0.2500000  -0.5000000   0.2500000), wk =   0.0625000
        k(   20) = (   0.2500000  -0.5000000  -0.5000000), wk =   0.0625000
        k(   21) = (  -0.5000000   0.0000000   0.0000000), wk =   0.0312500
        k(   22) = (  -0.5000000   0.0000000   0.2500000), wk =   0.0625000
        k(   23) = (  -0.5000000   0.0000000  -0.5000000), wk =   0.0312500
        k(   24) = (  -0.5000000   0.2500000   0.0000000), wk =   0.0625000
        k(   25) = (  -0.5000000   0.2500000   0.2500000), wk =   0.0625000
        k(   26) = (  -0.5000000   0.2500000  -0.5000000), wk =   0.0625000
        k(   27) = (  -0.5000000   0.2500000  -0.2500000), wk =   0.0625000
        k(   28) = (  -0.5000000  -0.5000000   0.0000000), wk =   0.0312500
        k(   29) = (  -0.5000000  -0.5000000   0.2500000), wk =   0.0625000
        k(   30) = (  -0.5000000  -0.5000000  -0.5000000), wk =   0.0312500
        k(   31) = (   0.2500000   0.0000000  -0.2500000), wk =   0.0625000
        k(   32) = (   0.2500000  -0.2500000   0.0000000), wk =   0.0625000
        k(   33) = (   0.2500000  -0.2500000  -0.2500000), wk =   0.0625000
        k(   34) = (   0.2500000  -0.2500000   0.5000000), wk =   0.0625000
        k(   35) = (   0.2500000  -0.2500000   0.2500000), wk =   0.0625000
        k(   36) = (   0.2500000   0.5000000  -0.2500000), wk =   0.0625000

     Initial potential from superposition of free atoms

     starting charge     159.9989, renormalised to     160.0000

     negative rho (up, down):  4.864E-04 0.000E+00
     Starting wfcs are  104 randomized atomic wfcs
[psid00:205665] Set MCA parameter "orte_base_help_aggregate" to 0 to see all help / error messages

     Self-consistent Calculation

     iteration #  1     ecut=    50.00 Ry     beta= 0.70
     Davidson diagonalization with overlap

     ethr =  1.00E-02,  avg # of iterations =  4.7

     Threshold (ethr) on eigenvalues was too large:
     Diagonalizing with lowered threshold

     Davidson diagonalization with overlap

[...]

[...]
                                0.00  -2833.91     -0.00
                                0.00     -0.00  -2842.35

     corecor stress (kbar)      0.00      0.00      0.00
                                0.00      0.00      0.00
                                0.00      0.00      0.00

     ewald   stress (kbar)  77410.99      0.00      0.00
                                0.00  81886.71      0.00
                                0.00      0.00-112447.70

     hubbard stress (kbar)      0.00      0.00      0.00
                                0.00      0.00      0.00
                                0.00      0.00      0.00

     DFT-D   stress (kbar)      0.00      0.00      0.00
                                0.00      0.00      0.00
                                0.00      0.00      0.00

     XDM     stress (kbar)      0.00      0.00      0.00
                                0.00      0.00      0.00
                                0.00      0.00      0.00

     dft-nl  stress (kbar)      0.00      0.00      0.00
                                0.00      0.00      0.00
                                0.00      0.00      0.00

     TS-vdW  stress (kbar)      0.00      0.00      0.00
                                0.00      0.00      0.00
                                0.00      0.00      0.00

     MDB     stress (kbar)      0.00      0.00      0.00
                                0.00      0.00      0.00
                                0.00      0.00      0.00

     3D-RISM stress (kbar)      0.00      0.00      0.00
                                0.00      0.00      0.00
                                0.00      0.00      0.00

     BFGS Geometry Optimization
     Energy error            =      0.0E+00 Ry
     Gradient error          =      1.4E-02 Ry/Bohr

     number of scf cycles    =   1
     number of bfgs steps    =   0

     energy             new  =   -3692.1614119247 Ry

     new trust radius        =       0.0138256331 bohr
     new conv_thr            =       0.0000007350 Ry

ATOMIC_POSITIONS (angstrom)
Zn               1.2182902100        1.3071799410        0.7547006760    0   0   0
Zn               1.2182902100        3.9215397970        0.7547006760    0   0   0
Zn               6.0914510490        1.3071799410        0.7547006760    0   0   0
Zn               6.0914510490        3.9215397970        0.7547006760    0   0   0
Zn               3.6548639060        0.0000011897        1.5020871850
Zn               3.6548617469        2.6143587629        1.5020851695
Zn               8.5280449106        0.0000014494        1.5020942342
Zn               8.5280507791        2.6143589364        1.5020868927

     Writing config-only to output data dir ./tmp/Zn100_2x4x2_relax.save/ :
     XML data file
     NEW-OLD atomic charge density approx. for the potential

[...]

     Total force =     0.027650     Total SCF correction =     0.005163
     SCF correction compared to forces is large: reduce conv_thr to get better values

[...]

     Energy error            =      7.5E-04 Ry
     Gradient error          =      1.4E-02 Ry/Bohr

[...]

     energy             old  =   -3692.1614119247 Ry
     energy             new  =   -3692.1621570659 Ry

     CASE: energy            _new < energy            _old

     WARNING: bfgs curvature condition failed, Theta= 0.801
     new trust radius        =       0.0152081964 bohr
     new conv_thr            =       0.0000002030 Ry

[...]

     Total force =     0.004069     Total SCF correction =     0.000380

[...]

     WARNING: bfgs curvature condition failed, Theta= 0.902
     new trust radius        =       0.0082656164 bohr
     new conv_thr            =       0.0000000231 Ry

[...]

     number of scf cycles    =  20
     number of bfgs steps    =  19

     energy             old  =   -3692.2012874388 Ry
     energy             new  =   -3692.2012989634 Ry

     CASE: energy            _new < energy            _old

     new trust radius        =       0.0049961454 bohr
     new conv_thr            =       0.0000000073 Ry

ATOMIC_POSITIONS (angstrom)
Zn               1.2182902100        1.3071799410        0.7547006760    0   0   0
Zn               1.2182902100        3.9215397970        0.7547006760    0   0   0
Zn               6.0914510490        1.3071799410        0.7547006760    0   0   0
Zn               6.0914510490        3.9215397970        0.7547006760    0   0   0
Zn               3.6541045545       -0.0000118935        0.7506212851
Zn               3.6541854014        2.6143770776        0.7507593486
Zn               8.5285907781       -0.0000012801        0.7506634237
Zn               8.5284314599        2.6143868514        0.7508058040

     Writing config-only to output data dir ./tmp/Zn100_2x4x2_relax.save/ :
     XML data file
     NEW-OLD atomic charge density approx. for the potential

[...]

     Self-consistent Calculation

[...]

     Threshold (ethr) on eigenvalues was too large:
     Diagonalizing with lowered threshold

     Davidson diagonalization with overlap

[...]

     total energy              =   -3692.20129952 Ry
     estimated scf accuracy    <          9.0E-09 Ry

     iteration #  5     ecut=    50.00 Ry     beta= 0.70
     Davidson diagonalization with overlap

     ethr =  5.62E-12,  avg # of iterations =  2.1

     negative rho (up, down):  5.600E-04 0.000E+00

     End of self-consistent calculation

[...]

          k =-0.5000-0.9320-0.8377 ( 33436 PWs)   bands (ev):

[...]

          k = 0.2500 0.9320 0.3883 ( 33417 PWs)   bands (ev):

  -127.4921-127.4921-127.4916-127.4916-127.4913-127.4913-127.4908-127.4908
   -81.6855 -81.6854 -81.6849 -81.6849 -81.6845 -81.6845 -81.6840 -81.6840
   -81.6286 -81.6286 -81.6284 -81.6284 -81.6262 -81.6262 -81.6253 -81.6253
   -81.6240 -81.6240 -81.6213 -81.6213 -81.6176 -81.6176 -81.6157 -81.6156
    -8.8174  -8.8174  -8.8087  -8.8087  -8.6891  -8.6891  -8.6073  -8.6073
    -8.5354  -8.5354  -8.5262  -8.5261  -8.4822  -8.4822  -8.4602  -8.4602
    -8.4423  -8.4422  -8.4312  -8.4312  -8.3797  -8.3797  -8.3634  -8.3633
    -8.3466  -8.3465  -8.2717  -8.2717  -8.2423  -8.2423  -8.1878  -8.1878
    -8.1565  -8.1565  -8.1552  -8.1552  -8.0999  -8.0998  -8.0662  -8.0662
    -6.7908  -6.7907  -6.0278  -6.0277  -4.3393  -4.3392  -1.7926  -1.7926
    -0.3341  -0.3340   0.5097   0.5097   1.5388   1.5389   2.1335   2.1335
     3.2592   3.3067   3.7906   3.9964   4.0328   4.0777   4.3511   4.3511

     occupation numbers
     1.0000   1.0000   1.0000   1.0000   1.0000   1.0000   1.0000   1.0000
     1.0000   1.0000   1.0000   1.0000   1.0000   1.0000   1.0000   1.0000
     1.0000   1.0000   1.0000   1.0000   1.0000   1.0000   1.0000   1.0000
     1.0000   1.0000   1.0000   1.0000   1.0000   1.0000   1.0000   1.0000
     1.0000   1.0000   1.0000   1.0000   1.0000   1.0000   1.0000   1.0000
     1.0000   1.0000   1.0000   1.0000   1.0000   1.0000   1.0000   1.0000
     1.0000   1.0000   1.0000   1.0000   1.0000   1.0000   1.0000   1.0000
     1.0000   1.0000   1.0000   1.0000   1.0000   1.0000   1.0000   1.0000
     1.0000   1.0000   1.0000   1.0000   1.0000   1.0000   1.0000   1.0000
     1.0000   1.0000   1.0000   1.0000   1.0000   1.0000   1.0833   1.0833
     0.0000   0.0000   0.0000   0.0000   0.0000   0.0000   0.0000   0.0000
     0.0000   0.0000   0.0000   0.0000   0.0000   0.0000   0.0000   0.0000

     the Fermi energy is    -1.4057 ev

!    total energy              =   -3692.20129952 Ry
     estimated scf accuracy    <          2.0E-09 Ry
     smearing contrib. (-TS)   =       0.00050756 Ry
     internal energy E=F+TS    =   -3692.20180708 Ry

     The total energy is F=E-TS. E is the sum of the following terms:
     one-electron contribution =  -10453.99794644 Ry
     hartree contribution      =    5200.70616675 Ry
     xc contribution           =    -336.69732792 Ry
     ewald contribution        =    1897.78730052 Ry

     convergence has been achieved in   5 iterations

     Forces acting on atoms (cartesian axes, Ry/au):

     atom    1 type  1   force =     0.00007382    0.00000483   -0.00001380
     atom    2 type  1   force =     0.00007381   -0.00000416   -0.00001374
     atom    3 type  1   force =    -0.00009991   -0.00000422   -0.00001331
     atom    4 type  1   force =    -0.00009989    0.00000485   -0.00001339
     atom    5 type  1   force =     0.00001843    0.00000520    0.00001985
     atom    6 type  1   force =     0.00000965   -0.00000544    0.00000811
     atom    7 type  1   force =     0.00000437    0.00000467    0.00001913
     atom    8 type  1   force =     0.00001972   -0.00000573    0.00000715
     The non-local contrib.  to forces
     atom    1 type  1   force =    -0.00002777   -0.00000176   -0.00081168
     atom    2 type  1   force =    -0.00002759    0.00000943   -0.00081174
     atom    3 type  1   force =    -0.00014945    0.00000977   -0.00081024
     atom    4 type  1   force =    -0.00014962   -0.00000215   -0.00081036
     atom    5 type  1   force =     0.00075165    0.00001318    0.00074344
     atom    6 type  1   force =     0.00065617   -0.00001433    0.00085769
     atom    7 type  1   force =    -0.00060178    0.00000550    0.00075627
     atom    8 type  1   force =    -0.00045127   -0.00002039    0.00087245
     The ionic contribution  to forces
     atom    1 type  1   force =    -0.00791732    0.00260394    0.22575315
     atom    2 type  1   force =    -0.00793552   -0.00251538    0.22575514
     atom    3 type  1   force =    -0.00793869   -0.00252115    0.22554730
     atom    4 type  1   force =    -0.00792106    0.00260952    0.22554929
     atom    5 type  1   force =     0.06982432    0.00162380   -0.23562156
     atom    6 type  1   force =     0.06668573   -0.00165430   -0.21916335
     atom    7 type  1   force =    -0.05529249    0.00151977   -0.23239755
     atom    8 type  1   force =    -0.04950497   -0.00166619   -0.21542241
     The local contribution  to forces
     atom    1 type  1   force =     0.00784125   -0.00259687   -0.22497995
     atom    2 type  1   force =     0.00785924    0.00250218   -0.22498190
     atom    3 type  1   force =     0.00816547    0.00250764   -0.22477574
     atom    4 type  1   force =     0.00814807   -0.00260213   -0.22477767
     atom    5 type  1   force =    -0.07047045   -0.00163137    0.23491843
     atom    6 type  1   force =    -0.06724512    0.00166370    0.21833432
     atom    7 type  1   force =     0.05581215   -0.00152026    0.23168029
     atom    8 type  1   force =     0.04988938    0.00168138    0.21457702
     The core correction contribution to forces
     atom    1 type  1   force =     0.00000000    0.00000000    0.00000000
     atom    2 type  1   force =     0.00000000    0.00000000    0.00000000
     atom    3 type  1   force =     0.00000000    0.00000000    0.00000000
     atom    4 type  1   force =     0.00000000    0.00000000    0.00000000
     atom    5 type  1   force =     0.00000000    0.00000000    0.00000000
     atom    6 type  1   force =     0.00000000    0.00000000    0.00000000
     atom    7 type  1   force =     0.00000000    0.00000000    0.00000000
     atom    8 type  1   force =     0.00000000    0.00000000    0.00000000
     The Hubbard contrib.    to forces
     atom    1 type  1   force =     0.00000000    0.00000000    0.00000000
     atom    2 type  1   force =     0.00000000    0.00000000    0.00000000
     atom    3 type  1   force =     0.00000000    0.00000000    0.00000000
     atom    4 type  1   force =     0.00000000    0.00000000    0.00000000
     atom    5 type  1   force =     0.00000000    0.00000000    0.00000000
     atom    6 type  1   force =     0.00000000    0.00000000    0.00000000
     atom    7 type  1   force =     0.00000000    0.00000000    0.00000000
     atom    8 type  1   force =     0.00000000    0.00000000    0.00000000
     The SCF correction term to forces
     atom    1 type  1   force =     0.00000000    0.00000000    0.00000000
     atom    2 type  1   force =     0.00000000    0.00000000    0.00000000
     atom    3 type  1   force =    -0.00000000    0.00000000    0.00000000
     atom    4 type  1   force =    -0.00000000    0.00000000    0.00000000
     atom    5 type  1   force =    -0.00008709    0.00000009   -0.00001728
     atom    6 type  1   force =    -0.00008713   -0.00000002   -0.00001738
     atom    7 type  1   force =     0.00008649    0.00000015   -0.00001670
     atom    8 type  1   force =     0.00008657   -0.00000005   -0.00001673

     Total force =     0.000043     Total SCF correction =     0.000177
     SCF correction compared to forces is large: reduce conv_thr to get better values

     Computing stress (Cartesian axis) and pressure

          total   stress  (Ry/bohr**3)                   (kbar)     P=      -12.53
  -0.00017669  -0.00000000   0.00000000          -25.99       -0.00        0.00
  -0.00000000  -0.00007087  -0.00000000           -0.00      -10.42       -0.00
   0.00000000  -0.00000000  -0.00000808            0.00       -0.00       -1.19

     kinetic stress (kbar)   5618.16      0.00      0.00
                                0.00   5623.67      0.00
                                0.00      0.00   5662.29

     local   stress (kbar)-195955.68     -0.00      0.01
                               -0.00-198474.06     -0.00
                                0.01     -0.00 201146.10

     nonloc. stress (kbar)   -598.60     -0.00     -0.00
                               -0.00   -594.83     -0.00
                               -0.00     -0.00   -645.33

     hartree stress (kbar) 109984.88      0.00     -0.01
                                0.00 111040.08      0.00
                               -0.01      0.00 -84243.52

     exc-cor stress (kbar)  -2835.39      0.00     -0.00
                                0.00  -2834.50      0.00
                               -0.00      0.00  -2843.73

     corecor stress (kbar)      0.00      0.00      0.00
                                0.00      0.00      0.00
                                0.00      0.00      0.00

     ewald   stress (kbar)  83760.63      0.00     -0.01
                                0.00  85229.22      0.00
                               -0.01      0.00-119076.99

     hubbard stress (kbar)      0.00      0.00      0.00
                                0.00      0.00      0.00
                                0.00      0.00      0.00

     DFT-D   stress (kbar)      0.00      0.00      0.00
                                0.00      0.00      0.00
                                0.00      0.00      0.00

     XDM     stress (kbar)      0.00      0.00      0.00
                                0.00      0.00      0.00
                                0.00      0.00      0.00

     dft-nl  stress (kbar)      0.00      0.00      0.00
                                0.00      0.00      0.00
                                0.00      0.00      0.00

     TS-vdW  stress (kbar)      0.00      0.00      0.00
                                0.00      0.00      0.00
                                0.00      0.00      0.00

     MDB     stress (kbar)      0.00      0.00      0.00
                                0.00      0.00      0.00
                                0.00      0.00      0.00

     3D-RISM stress (kbar)      0.00      0.00      0.00
                                0.00      0.00      0.00
                                0.00      0.00      0.00

     Energy error            =      5.6E-07 Ry
     Gradient error          =      2.0E-05 Ry/Bohr

     bfgs converged in  21 scf cycles and  20 bfgs steps
     (criteria: energy <  1.0E-05 Ry, force <  5.0E-04 Ry/Bohr)

     End of BFGS Geometry Optimization

     Final energy             =   -3692.2012995236 Ry

     File ./tmp/Zn100_2x4x2_relax.bfgs deleted, as requested
Begin final coordinates

ATOMIC_POSITIONS (angstrom)
Zn               1.2182902100        1.3071799410        0.7547006760    0   0   0
Zn               1.2182902100        3.9215397970        0.7547006760    0   0   0
Zn               6.0914510490        1.3071799410        0.7547006760    0   0   0
Zn               6.0914510490        3.9215397970        0.7547006760    0   0   0
Zn               3.6541045545       -0.0000118935        0.7506212851
Zn               3.6541854014        2.6143770776        0.7507593486
Zn               8.5285907781       -0.0000012801        0.7506634237
Zn               8.5284314599        2.6143868514        0.7508058040
End final coordinates

     Writing all to output data dir ./tmp/Zn100_2x4x2_relax.save/ :
     XML data file, charge density, pseudopotentials, collected wavefunctions

     General routines

     Parallel routines

   This run was terminated on:   1:54: 3  19Jan1998

   JOB DONE.