     Program PWSCF v.7.3.1 starts on 12Apr2025 at  2: 3:16

     Waiting for input...
     Reading input from standard input
Warning: card &CELL ignored
Warning: card   CELL_DOFREE = 'ALL' ignored
Warning: card / ignored

     Current dimensions of program PWSCF are:
     Max number of different atomic species (ntypx) = 10
     Max number of k-points (npk) =  40000
     Max angular momentum in pseudopotentials (lmaxx) =  4
     file C.pbe-n-kjpaw_psl.1.0.0.UPF: wavefunction(s)  2S 2P renormalized

     R & G space division:  proc/nbgrp/npool/nimage =      33
     Subspace diagonalization in iterative solution of the eigenvalue problem:
     one sub-group per band group will be used

     Using Slab Decomposition

     bravais-lattice index     =            0
     lattice parameter (alat)  =      18.4179  a.u.
     unit-cell volume          =   15858.2170 (a.u.)^3
     number of atoms/cell      =           65
     number of atomic types    =            4
     number of electrons       =      1002.00
     number of Kohn-Sham states=          601
     kinetic-energy cutoff     =      40.0000  Ry
     charge density cutoff     =     280.0000  Ry
     scf convergence threshold =      1.0E-06
     mixing beta               =       0.4000
     number of iterations used =            8  plain     mixing
     energy convergence thresh.=      5.0E-05
     force convergence thresh. =      1.0E-03
     Exchange-correlation= PBE
                           (   1   4   3   4   0   0   0)
     nstep                     =          300

     celldm(1)=  18.417879  celldm(2)=   0.000000  celldm(3)=   0.000000
     celldm(4)=   0.000000  celldm(5)=   0.000000  celldm(6)=   0.000000

     crystal axes: (cart. coord. in units of alat)
               a(1) = (   1.000000   0.000000   0.000000 )
               a(2) = (   0.000000   1.072963   0.000000 )
               a(3) = (   0.000000  -1.365810   2.365652 )

     reciprocal axes: (cart. coord. in units 2 pi/alat)
               b(1) = (  1.000000  0.000000 -0.000000 )
               b(2) = ( -0.000000  0.931999  0.538090 )
               b(3) = (  0.000000  0.000000  0.422716 )

     PseudoPot. # 1 for Zn read from file:
     /home/ys/qepseudo/SSSP_1.3.0_PBE_efficiency/Zn_pbe_v1.uspp.F.UPF
     MD5 check sum: df62231357ef9e81f77b2b3087fa5675
     Pseudo is Ultrasoft, Zval = 20.0
     Generated by new atomic code, or converted to UPF format
     Using radial grid of  943 points,  6 beta functions with:
                l(1) =   0
                l(2) =   0
                l(3) =   1
                l(4) =   1
                l(5) =   2
                l(6) =   2
     Q(r) pseudized with  8 coefficients,  rinner =    1.100   1.100   1.100
                                                       1.100   1.100

     PseudoPot. # 2 for N  read from file:
     /home/ys/qepseudo/SSSP_1.3.0_PBE_efficiency/N.pbe-n-radius_5.UPF
     MD5 check sum: 16739722b17309cd8fe442a2ace49922
     Pseudo is Ultrasoft + core correction, Zval =  5.0
     Generated using "atomic" code by A. Dal Corso  v.5.1
     Using radial grid of 1085 points,  4 beta functions with:
                l(1) =   0
                l(2) =   0
                l(3) =   1
                l(4) =   1
     Q(r) pseudized with 0 coefficients

     PseudoPot. # 3 for C  read from file:
     /home/ys/qepseudo/SSSP_1.3.0_PBE_efficiency/C.pbe-n-kjpaw_psl.1.0.0.UPF
     MD5 check sum: 5d2aebdfa2cae82b50a7e79e9516da0f
     Pseudo is Projector augmented-wave + core cor, Zval =  4.0
     Generated using "atomic" code by A. Dal Corso  v.5.1
     Shape of augmentation charge: PSQ
     Using radial grid of 1073 points,  4 beta functions with:
                l(1) =   0
                l(2) =   0
                l(3) =   1
                l(4) =   1
     Q(r) pseudized with 0 coefficients

     PseudoPot. # 4 for H  read from file:
     /home/ys/qepseudo/SSSP_1.3.0_PBE_efficiency/H.pbe-rrkjus_psl.1.0.0.UPF
     MD5 check sum: f52b6d4d1c606e5624b1dc7b2218f220
     Pseudo is Ultrasoft, Zval =  1.0
     Generated using "atomic" code by A. Dal Corso  v.5.1
     Using radial grid of  929 points,  2 beta functions with:
                l(1) =   0
                l(2) =   0
     Q(r) pseudized with 0 coefficients

     atomic species   valence    mass     pseudopotential
     Zn               20.00    65.38000     Zn( 1.00)
     N                 5.00    14.00674     N ( 1.00)
     C                 4.00    12.01070     C ( 1.00)
     H                 1.00     1.00794     H ( 1.00)

     No symmetry found

                                    s                        frac. trans.

      isym =  1     identity

 cryst.   s( 1) = (     1          0          0      )
                  (     0          1          0      )
                  (     0          0          1      )

 cart.    s( 1) = (  1.0000000  0.0000000  0.0000000 )
                  (  0.0000000  1.0000000 -0.0000000 )
                  (  0.0000000  0.0000000  1.0000000 )

   Cartesian axes

     site n.     atom                  positions (alat units)
         1        Zn     tau(   1) = (   0.1250000   0.1341203   0.0774344  )
         2        Zn     tau(   2) = (   0.1250000   0.6706017   0.0774344  )
         3        Zn     tau(   3) = (   0.1246467  -0.0000682   0.3680871  )
         4        Zn     tau(   4) = (   0.1246687   0.5365376   0.3677909  )
         5        Zn     tau(   5) = (   0.1249937  -0.1341499   0.6433208  )
         6        Zn     tau(   6) = (   0.1249499   0.4022150   0.6434049  )
         7        Zn     tau(   7) = (   0.1250000   0.4023610   0.0774344  )
         8        Zn     tau(   8) = (   0.1250000   0.9388424   0.0774344  )
         9        Zn     tau(   9) = (   0.1244230   0.2681663   0.3667977  )
        10        Zn     tau(  10) = (   0.1248783   0.8046588   0.3675495  )
        11        Zn     tau(  11) = (   0.1250033   0.1341627   0.6435827  )
        12        Zn     tau(  12) = (   0.1250252   0.6705085   0.6432644  )
        13        Zn     tau(  13) = (   0.6250000   0.1341203   0.0774344  )
        14        Zn     tau(  14) = (   0.6250000   0.6706017   0.0774344  )
        15        Zn     tau(  15) = (   0.6256948  -0.0001006   0.3680721  )
        16        Zn     tau(  16) = (   0.6257002   0.5365017   0.3683976  )
        17        Zn     tau(  17) = (   0.6253054  -0.1341371   0.6430719  )
        18        Zn     tau(  18) = (   0.6250301   0.4021358   0.6435596  )
        19        Zn     tau(  19) = (   0.6250000   0.4023610   0.0774344  )
        20        Zn     tau(  20) = (   0.6250000   0.9388424   0.0774344  )
        21        Zn     tau(  21) = (   0.6259662   0.2682198   0.3669128  )
        22        Zn     tau(  22) = (   0.6254548   0.8046649   0.3677413  )
        23        Zn     tau(  23) = (   0.6251935   0.1341441   0.6431064  )
        24        Zn     tau(  24) = (   0.6252555   0.6704878   0.6431992  )
        25        Zn     tau(  25) = (   0.3750000  -0.0000000   0.1548688  )
        26        Zn     tau(  26) = (   0.3750000   0.5364814   0.1548688  )
        27        Zn     tau(  27) = (   0.3753544  -0.1342540   0.3941166  )
        28        Zn     tau(  28) = (   0.3754040   0.4026161   0.3932177  )
        29        Zn     tau(  29) = (   0.3754110  -0.2683619   0.6406262  )
        30        Zn     tau(  30) = (   0.3752010   0.2680205   0.6377739  )
        31        Zn     tau(  31) = (   0.3750000   0.2682407   0.1548688  )
        32        Zn     tau(  32) = (   0.3750000   0.8047221   0.1548688  )
        33        Zn     tau(  33) = (   0.3753532   0.1337141   0.3931765  )
        34        Zn     tau(  34) = (   0.3753162   0.6707316   0.3940858  )
        35        Zn     tau(  35) = (   0.3753707  -0.0000217   0.6405551  )
        36        Zn     tau(  36) = (   0.3753375   0.5363453   0.6407877  )
        37        Zn     tau(  37) = (   0.8750000  -0.0000000   0.1548688  )
        38        Zn     tau(  38) = (   0.8750000   0.5364814   0.1548688  )
        39        Zn     tau(  39) = (   0.8750207  -0.1341758   0.3953654  )
        40        Zn     tau(  40) = (   0.8751018   0.4023430   0.3953901  )
        41        Zn     tau(  41) = (   0.8749104  -0.2683001   0.6428122  )
        42        Zn     tau(  42) = (   0.8747795   0.2681717   0.6437952  )
        43        Zn     tau(  43) = (   0.8750000   0.2682407   0.1548688  )
        44        Zn     tau(  44) = (   0.8750000   0.8047221   0.1548688  )
        45        Zn     tau(  45) = (   0.8750283   0.1339942   0.3954252  )
        46        Zn     tau(  46) = (   0.8750772   0.6706981   0.3953507  )
        47        Zn     tau(  47) = (   0.8748977  -0.0000217   0.6432117  )
        48        Zn     tau(  48) = (   0.8748272   0.5364209   0.6433152  )
        49        C      tau(  49) = (   0.3117958   0.3765925   1.3615783  )
        50        C      tau(  50) = (   0.3733679   0.2673487   1.4330460  )
        51        C      tau(  51) = (   0.3128620   0.3797161   1.2186659  )
        52        C      tau(  52) = (   0.4309019   0.1599880   1.3560497  )
        53        C      tau(  53) = (   0.3733416   0.2751387   1.1405335  )
        54        C      tau(  54) = (   0.4307576   0.1650939   1.2128472  )
        55        C      tau(  55) = (   0.3770091   0.2818772   0.9858536  )
        56        N      tau(  56) = (   0.3842534   0.2698299   1.5760111  )
        57        H      tau(  57) = (   0.3140320   0.3284844   1.6256696  )
        58        H      tau(  58) = (   0.4320253   0.3735951   0.9485269  )
        59        H      tau(  59) = (   0.2639628   0.4606195   1.4186995  )
        60        H      tau(  60) = (   0.3985433   0.1774843   1.6217028  )
        61        H      tau(  61) = (   0.2658305   0.4669273   1.1664127  )
        62        H      tau(  62) = (   0.4776139   0.0723677   1.4084285  )
        63        H      tau(  63) = (   0.4781979   0.0812091   1.1558775  )
        64        H      tau(  64) = (   0.4289330   0.1917696   0.9418169  )
        65        H      tau(  65) = (   0.2731161   0.2860817   0.9409298  )

     DFT-D3 Dispersion Correction (3-body terms):
       Reference C6 values for interpolation:

         atom   Coordination number   C6
         H          0.912             6.05
         H          0.000            15.18
         C          0.000            98.23
         C          0.987            86.49
         C          1.998            58.72
         C          2.999            51.56
         C          3.984            36.41
         N          0.000            50.54
         N          0.994            44.25
         N          2.014            39.35
         N          2.990            31.16
         Zn         0.000           681.04
         Zn         1.942           306.91

       Values used:

         atom   Coordination number  R0_AB[au]  C6      C8
         Zn         4.518            3.053    306.91  23930.67
         Zn         4.514            3.053    306.91  23930.67
         Zn         6.255            3.053    306.91  23930.67
         Zn         6.256            3.053    306.91  23930.67
[...]
     atom   23 type  1   force =     0.00002533   -0.00001367   -0.00000750
     atom   24 type  1   force =     0.00002197    0.00001351    0.00001970
     atom   25 type  1   force =     0.00000000    0.00000000    0.00000000
     atom   26 type  1   force =     0.00000000   -0.00000000   -0.00000000
     atom   27 type  1   force =    -0.00000265    0.00003430   -0.00000310
     atom   28 type  1   force =     0.00000045   -0.00003258   -0.00000494
     atom   29 type  1   force =    -0.00000769    0.00002640   -0.00001455
     atom   30 type  1   force =    -0.00000286   -0.00002580   -0.00002964
     atom   31 type  1   force =     0.00000000   -0.00000000    0.00000000
     atom   32 type  1   force =     0.00000000    0.00000000   -0.00000000
     atom   33 type  1   force =    -0.00000136   -0.00001995   -0.00001127
     atom   34 type  1   force =    -0.00000208    0.00001847    0.00000346
     atom   35 type  1   force =    -0.00000668   -0.00000111   -0.00003312
     atom   36 type  1   force =    -0.00000654   -0.00000108   -0.00001011
     atom   37 type  1   force =    -0.00000000    0.00000000    0.00000000
     atom   38 type  1   force =    -0.00000000   -0.00000000   -0.00000000
     atom   39 type  1   force =    -0.00000130    0.00003639    0.00002981
     atom   40 type  1   force =    -0.00000492   -0.00003759    0.00003229
     atom   41 type  1   force =     0.00000881    0.00002647   -0.00000642
     atom   42 type  1   force =     0.00000711   -0.00002634   -0.00001677
     atom   43 type  1   force =    -0.00000000   -0.00000000    0.00000000
     atom   44 type  1   force =    -0.00000000    0.00000000    0.00000000
     atom   45 type  1   force =    -0.00000323   -0.00001514    0.00002609
     atom   46 type  1   force =    -0.00000290    0.00001606    0.00003719
     atom   47 type  1   force =     0.00000936    0.00000678   -0.00002105
     atom   48 type  1   force =     0.00000691   -0.00000734   -0.00000173
     atom   49 type  3   force =     0.00000043    0.00000118    0.00001080
     atom   50 type  3   force =    -0.00000212   -0.00000191    0.00000378
     atom   51 type  3   force =    -0.00000039    0.00000456    0.00000685
     atom   52 type  3   force =     0.00000014    0.00000349    0.00001049
     atom   53 type  3   force =    -0.00000100    0.00000102   -0.00000129
     atom   54 type  3   force =     0.00000486   -0.00000099    0.00000802
     atom   55 type  3   force =    -0.00000578   -0.00000425   -0.00000579
     atom   56 type  2   force =    -0.00001325   -0.00000483    0.00000202
     atom   57 type  4   force =     0.00000069   -0.00000184   -0.00000099
     atom   58 type  4   force =    -0.00000039    0.00000042   -0.00000086
     atom   59 type  4   force =     0.00000078   -0.00000105   -0.00000013
     atom   60 type  4   force =    -0.00000141    0.00000152   -0.00000072
     atom   61 type  4   force =    -0.00000068    0.00000179   -0.00000020
     atom   62 type  4   force =    -0.00000029    0.00000122    0.00000026
     atom   63 type  4   force =     0.00000169   -0.00000156   -0.00000066
     atom   64 type  4   force =    -0.00000055   -0.00000130   -0.00000093
     atom   65 type  4   force =    -0.00000084   -0.00000081   -0.00000064

     DFT-D3 dispersion contribution to forces:
     atom    1 type  1   force =     0.00000025   -0.00000140    0.00155491
     atom    2 type  1   force =     0.00000121    0.00000172    0.00155580
     atom    3 type  1   force =     0.00002674   -0.00000644    0.00157094
     atom    4 type  1   force =     0.00002948    0.00000661    0.00159436
     atom    5 type  1   force =     0.00004446    0.00006450   -0.00105704
     atom    6 type  1   force =     0.00042485   -0.00020470   -0.00041980
     atom    7 type  1   force =     0.00000142    0.00000310    0.00155176
     atom    8 type  1   force =     0.00000064   -0.00000187    0.00155963
     atom    9 type  1   force =    -0.00001051    0.00000878    0.00158263
     atom   10 type  1   force =     0.00002398   -0.00001134    0.00157588
     atom   11 type  1   force =     0.00039986    0.00025618   -0.00047177
     atom   12 type  1   force =     0.00006306   -0.00010466   -0.00102629
     atom   13 type  1   force =    -0.00000005   -0.00000161    0.00155264
     atom   14 type  1   force =    -0.00000049    0.00000219    0.00155318
     atom   15 type  1   force =    -0.00002319   -0.00000839    0.00156855
     atom   16 type  1   force =    -0.00003183    0.00000465    0.00157813
     atom   17 type  1   force =    -0.00004885    0.00008437   -0.00102658
     atom   18 type  1   force =    -0.00043969   -0.00019622   -0.00042450
     atom   19 type  1   force =     0.00000005    0.00000255    0.00154837
     atom   20 type  1   force =    -0.00000048   -0.00000121    0.00155777
     atom   21 type  1   force =     0.00000646    0.00000950    0.00156956
     atom   22 type  1   force =    -0.00002221   -0.00001019    0.00156684
     atom   23 type  1   force =    -0.00041034    0.00021539   -0.00045018
     atom   24 type  1   force =    -0.00006163   -0.00010657   -0.00102368
     atom   25 type  1   force =    -0.00000974   -0.00000129    0.00272595
     atom   26 type  1   force =    -0.00001120    0.00000304    0.00272958
     atom   27 type  1   force =     0.00001216    0.00000019   -0.00245078
     atom   28 type  1   force =     0.00001802    0.00000705   -0.00238307
     atom   29 type  1   force =     0.00001649   -0.00002648   -0.00209754
     atom   30 type  1   force =     0.00001421    0.00003822   -0.00078091
     atom   31 type  1   force =    -0.00001101    0.00000019    0.00272209
     atom   32 type  1   force =    -0.00001005    0.00000122    0.00272777
     atom   33 type  1   force =     0.00000961    0.00000825   -0.00238691
     atom   34 type  1   force =     0.00001292   -0.00001169   -0.00245336
     atom   35 type  1   force =     0.00003697    0.00048920   -0.00146827
     atom   36 type  1   force =     0.00001153   -0.00052429   -0.00136439
     atom   37 type  1   force =    -0.00001178   -0.00000407    0.00272796
     atom   38 type  1   force =    -0.00001225    0.00000561    0.00273312
     atom   39 type  1   force =    -0.00001130   -0.00000512   -0.00245533
     atom   40 type  1   force =    -0.00001426    0.00000512   -0.00243499
     atom   41 type  1   force =    -0.00000251   -0.00001166   -0.00219359
     atom   42 type  1   force =     0.00001128    0.00001413   -0.00203574
     atom   43 type  1   force =    -0.00001230    0.00000042    0.00272287
     atom   44 type  1   force =    -0.00001120    0.00000093    0.00273585
     atom   45 type  1   force =    -0.00000817    0.00000850   -0.00243903
     atom   46 type  1   force =    -0.00001057   -0.00000522   -0.00245376
     atom   47 type  1   force =    -0.00000512    0.00003219   -0.00214700
     atom   48 type  1   force =     0.00000490   -0.00003598   -0.00213565
     atom   49 type  3   force =    -0.00008806    0.00018184   -0.00037908
     atom   50 type  3   force =     0.00003148    0.00000642    0.00012347
     atom   51 type  3   force =    -0.00005744    0.00009279   -0.00032806
     atom   52 type  3   force =     0.00009456   -0.00015262   -0.00039003
     atom   53 type  3   force =    -0.00000353   -0.00000655   -0.00048318
     atom   54 type  3   force =     0.00005310   -0.00011442   -0.00018321
     atom   55 type  3   force =     0.00000074    0.00000072   -0.00101332
     atom   56 type  2   force =     0.00000341    0.00000853   -0.00007105
     atom   57 type  4   force =     0.00002066   -0.00007419    0.00010748
     atom   58 type  4   force =     0.00005741    0.00007012   -0.00130691
     atom   59 type  4   force =     0.00001094   -0.00000947   -0.00000972
     atom   60 type  4   force =    -0.00004845    0.00004863    0.00011371
     atom   61 type  4   force =     0.00003263   -0.00004869   -0.00022659
     atom   62 type  4   force =    -0.00000672    0.00000765   -0.00001104
     atom   63 type  4   force =    -0.00002558    0.00003835   -0.00017051
     atom   64 type  4   force =     0.00003340   -0.00003996   -0.00166183
     atom   65 type  4   force =    -0.00008841   -0.00000257   -0.00139610

     Total force =     0.002926     Total SCF correction =     0.000192

     DFT-D3 dispersion Force =     0.013716

     Computing stress (Cartesian axis) and pressure

     negative rho (up, down):  3.052E-03 0.000E+00
          total   stress  (Ry/bohr**3)                   (kbar)     P=      -17.24
  -0.00019808  -0.00000023  -0.00000007          -29.14       -0.03       -0.01
  -0.00000023  -0.00013356   0.00000014           -0.03      -19.65        0.02
  -0.00000007   0.00000014  -0.00001988           -0.01        0.02       -2.92

     kinetic stress (kbar)  12408.04     25.96      4.12
                               25.96  12351.43      2.22
                                4.12      2.22  12401.60

     local   stress (kbar)-949799.15    669.25     26.64
                              669.25-962994.47     45.58
                               26.64     45.58 959535.75

     nonloc. stress (kbar)  -1196.05     -1.94      0.09
                               -1.94  -1165.89      0.02
                                0.09      0.02  -1213.79

     hartree stress (kbar) 501599.93   -247.63     -7.85
                             -247.63 507220.83    -18.14
                               -7.85    -18.14-446507.94

     exc-cor stress (kbar)  -6049.82     -1.31     -0.07
                               -1.31  -6044.82     -0.05
                               -0.07     -0.05  -6052.10

     corecor stress (kbar)    -75.93      0.40      0.00
                                0.40    -76.43     -0.00
                                0.00     -0.00    -76.57

     ewald   stress (kbar) 443089.86   -444.75    -22.95
                             -444.75 450698.41    -29.60
                              -22.95    -29.60-518086.60

     hubbard stress (kbar)      0.00      0.00      0.00
                                0.00      0.00      0.00
                                0.00      0.00      0.00

     DFT-D   stress (kbar)     -6.03     -0.00      0.01
                               -0.00     -8.71     -0.00
                                0.01     -0.00     -3.28

     XDM     stress (kbar)      0.00      0.00      0.00
                                0.00      0.00      0.00
                                0.00      0.00      0.00

     dft-nl  stress (kbar)      0.00      0.00      0.00
                                0.00      0.00      0.00
                                0.00      0.00      0.00

     TS-vdW  stress (kbar)      0.00      0.00      0.00
                                0.00      0.00      0.00
                                0.00      0.00      0.00

     MDB     stress (kbar)      0.00      0.00      0.00
                                0.00      0.00      0.00
                                0.00      0.00      0.00

     3D-RISM stress (kbar)      0.00      0.00      0.00
                                0.00      0.00      0.00
                                0.00      0.00      0.00

     Energy error            =      1.0E-05 Ry
     Gradient error          =      8.6E-04 Ry/Bohr

     bfgs converged in  27 scf cycles and  26 bfgs steps
     (criteria: energy <  5.0E-05 Ry, force <  1.0E-03 Ry/Bohr)

     End of BFGS Geometry Optimization

     Final energy             =  -22314.6566301204 Ry

     File ./tmp/Zn100_3layer_ptoluidine_relax.bfgs deleted, as requested
Begin final coordinates

ATOMIC_POSITIONS (angstrom)
Zn               1.2182900000        1.3071800000        0.7547010000    0   0   0
Zn               1.2182900000        6.5359000000        0.7547010000    0   0   0
Zn               1.2236406333       -0.0005909593        3.5723560778
Zn               1.2241691534        5.2289186784        3.5730305899
Zn               1.2202023226       -1.3083656388        6.1051816408
Zn               1.2210448485        3.9223377123        6.1108000508
Zn               1.2182900000        3.9215400000        0.7547010000    0   0   0
Zn               1.2182900000        9.1502600000        0.7547010000    0   0   0
Zn               1.2237358048        2.6149529867        3.5776623372
Zn               1.2242796706        7.8418202022        3.5719214824
Zn               1.2213594108        1.3073264094        6.1120319423
Zn               1.2202433920        6.5346977183        6.1050385264
Zn               6.0914510000        1.3071800000        0.7547010000    0   0   0
Zn               6.0914510000        6.5359000000        0.7547010000    0   0   0
Zn               6.0952692728       -0.0008353939        3.5734156955
Zn               6.0956228093        5.2287092739        3.5746964617
Zn               6.0945857012       -1.3082253539        6.1046640442
Zn               6.0910780558        3.9219479116        6.1138035229
Zn               6.0914510000        3.9215400000        0.7547010000    0   0   0
Zn               6.0914510000        9.1502600000        0.7547010000    0   0   0
Zn               6.0964105685        2.6152056719        3.5785605724
Zn               6.0943691256        7.8417250351        3.5729209855
Zn               6.0924978245        1.3070911688        6.1101076667
Zn               6.0938373456        6.5348503580        6.1060032371
Zn               3.6548710000       -0.0000000000        1.5094010000    0   0   0
Zn               3.6548710000        5.2287200000        1.5094010000    0   0   0
Zn               3.6612984253       -1.3077051260        3.7826786153
Zn               3.6624665138        3.9228490916        3.7822065492
Zn               3.6588111104       -2.6162341987        6.1532731640
Zn               3.6577970104        2.6144990588        6.1460027433
Zn               3.6548710000        2.6143600000        1.5094010000    0   0   0
Zn               3.6548710000        7.8430800000        1.5094010000    0   0   0
Zn               3.6617829030        1.3069556123        3.7829211703
Zn               3.6615792138        6.5344513164        3.7814951438
Zn               3.6587942113       -0.0005240947        6.1546083639
Zn               3.6584604247        5.2280050527        6.1578440427
Zn               8.5280310000       -0.0000000000        1.5094010000    0   0   0
Zn               8.5280310000        5.2287200000        1.5094010000    0   0   0
Zn               8.5315511588       -1.3078712485        3.7788181980
Zn               8.5328064719        3.9216910407        3.7797089422
Zn               8.5288550807       -2.6161164590        6.1461458981
Zn               8.5275506075        2.6153714849        6.1499825801
Zn               8.5280310000        2.6143600000        1.5094010000    0   0   0
Zn               8.5280310000        7.8430800000        1.5094010000    0   0   0
Zn               8.5320214916        1.3081487801        3.7809453005
Zn               8.5321132146        6.5347777938        3.7774760712
Zn               8.5290288854       -0.0002536875        6.1462063255
Zn               8.5277725927        5.2281906288        6.1472510789
C                3.0595927655        3.6837479139       13.2567162747
C                3.6467312358        2.6144097068       13.9552183412
C                3.0597949468        3.7115737469       11.8633840588
C                4.2228323052        1.5788006391       13.2041325351
C                3.6404904834        2.6848511173       11.1052285269
C                4.2162942164        1.6208788006       11.8089200220
C                3.6544894638        2.7364759975        9.5985920070
N                3.7167501019        2.6196666770       15.3553454991
H                2.9928491002        3.1628267817       15.8151471723
H                4.1901572110        3.6234213384        9.2208625741
H                2.6073382635        4.5072540482       13.8143571138
H                3.8173121274        1.7025401017       15.7787896810
H                2.5970336690        4.5601529051       11.3528905340
H                4.6914942471        0.7357130858       13.7173394922
H                4.6778581702        0.8001228508       11.2540426839
H                4.1498863023        1.8533477523        9.1695793671
H                2.6385657507        2.7785251687        9.1714356954
End final coordinates

     Writing all to output data dir ./tmp/Zn100_3layer_ptoluidine_relax.save/ :
     XML data file, charge density, pseudopotentials, collected wavefunctions

     General routines

     Parallel routines

     PAW routines

   This run was terminated on:  23:38:35  12Apr2025

   JOB DONE.