     Program PWSCF v.7.3.1 starts on 17Mar2025 at 11:19:16

     Waiting for input...
     Reading input from standard input

     Current dimensions of program PWSCF are:
     Max number of different atomic species (ntypx) = 10
     Max number of k-points (npk) =  40000
     Max angular momentum in pseudopotentials (lmaxx) =  4
     file O.pbe-n-kjpaw_psl.0.1.UPF: wavefunction(s)  2P renormalized

     R & G space division:  proc/nbgrp/npool/nimage =      30
     Subspace diagonalization in iterative solution of the eigenvalue problem:
     one sub-group per band group will be used

     Using Slab Decomposition

     bravais-lattice index     =            0
     lattice parameter (alat)  =       9.8808  a.u.
     unit-cell volume          =    7588.2966 (a.u.)^3
     number of atoms/cell      =           35
     number of atomic types    =            3
     number of electrons       =       648.00
     number of Kohn-Sham states=          389
     kinetic-energy cutoff     =      50.0000  Ry
     charge density cutoff     =     200.0000  Ry
     scf convergence threshold =      7.3E-07
     mixing beta               =       0.7000
     number of iterations used =            8  plain     mixing
     Exchange-correlation= SLA  PW   PBX  PBC
                           (   1   4   3   4   0   0   0)

     celldm(1)=   9.880848  celldm(2)=   0.000000  celldm(3)=   0.000000
     celldm(4)=   0.000000  celldm(5)=   0.000000  celldm(6)=   0.000000

     crystal axes: (cart. coord. in units of alat)
               a(1) = (   1.000000   0.000000   0.000000 )
               a(2) = (  -1.000000   1.732051   0.000000 )
               a(3) = (   0.000000   0.000000   4.541517 )

     reciprocal axes: (cart. coord. in units 2 pi/alat)
               b(1) = (  1.000000  0.577350 -0.000000 )
               b(2) = (  0.000000  0.577350  0.000000 )
               b(3) = (  0.000000 -0.000000  0.220191 )

     PseudoPot. # 1 for Zn read from file:
     /home/ys/qepseudo/SSSP_1.3.0_PBE_efficiency/Zn_pbe_v1.uspp.F.UPF
     MD5 check sum: df62231357ef9e81f77b2b3087fa5675
     Pseudo is Ultrasoft, Zval = 20.0
     Generated by new atomic code, or converted to UPF format
     Using radial grid of  943 points,  6 beta functions with:
                l(1) =   0
                l(2) =   0
                l(3) =   1
                l(4) =   1
                l(5) =   2
                l(6) =   2
     Q(r) pseudized with  8 coefficients,  rinner =    1.100   1.100   1.100
                                                       1.100   1.100

     PseudoPot. # 2 for H  read from file:
     /home/ys/qepseudo/SSSP_1.3.0_PBE_efficiency/H.pbe-rrkjus_psl.1.0.0.UPF
     MD5 check sum: f52b6d4d1c606e5624b1dc7b2218f220
     Pseudo is Ultrasoft, Zval =  1.0
     Generated using "atomic" code by A. Dal Corso  v.5.1
     Using radial grid of  929 points,  2 beta functions with:
                l(1) =   0
                l(2) =   0
     Q(r) pseudized with 0 coefficients

     PseudoPot. # 3 for O  read from file:
     /home/ys/qepseudo/SSSP_1.3.0_PBE_efficiency/O.pbe-n-kjpaw_psl.0.1.UPF
     MD5 check sum: 0234752ac141de4415c5fc33072bef88
     Pseudo is Projector augmented-wave + core cor, Zval =  6.0
     Generated using "atomic" code by A. Dal Corso  v.5.0.99 svn rev. 10869
     Shape of augmentation charge: BESSEL
     Using radial grid of 1095 points,  4 beta functions with:
                l(1) =   0
                l(2) =   0
                l(3) =   1
                l(4) =   1
     Q(r) pseudized with 0 coefficients

     atomic species   valence    mass     pseudopotential
     Zn               20.00    65.38000     Zn( 1.00)
     H                 1.00     1.00800     H ( 1.00)
     O                 6.00    16.00000     O ( 1.00)

     No symmetry found

                                    s                        frac. trans.

      isym =  1     identity

 cryst.   s( 1) = (     1          0          0      )
                  (     0          1          0      )
                  (     0          0          1      )

 cart.    s( 1) = (  1.0000000  0.0000000  0.0000000 )
                  (  0.0000000  1.0000000  0.0000000 )
                  (  0.0000000  0.0000000  1.0000000 )

   Cartesian axes

     site n.     atom                  positions (alat units)
         1        Zn     tau(   1) = (  -0.0000000   0.2886751   0.2329997  )
         2        Zn     tau(   2) = (   0.0039991   0.2887220   1.1931802  )
         3        Zn     tau(   3) = (  -0.2500000   0.7216878   0.2329997  )
         4        Zn     tau(   4) = (  -0.2458151   0.7233618   1.1974027  )
         5        Zn     tau(   5) = (  -0.5000000   1.1547005   0.2329997  )
         6        Zn     tau(   6) = (  -0.4952426   1.1540331   1.1955908  )
         7        Zn     tau(   7) = (  -0.7500000   1.5877132   0.2329997  )
         8        Zn     tau(   8) = (  -0.7459549   1.5868060   1.1940888  )
         9        Zn     tau(   9) = (   0.5000000   0.2886751   0.2329997  )
        10        Zn     tau(  10) = (   0.5042285   0.2887029   1.1936481  )
        11        Zn     tau(  11) = (   0.2500000   0.7216878   0.2329997  )
        12        Zn     tau(  12) = (   0.2541233   0.7226671   1.1963256  )
        13        Zn     tau(  13) = (  -0.0000000   1.1547005   0.2329997  )
        14        Zn     tau(  14) = (   0.0035399   1.1539788   1.1961855  )
        15        Zn     tau(  15) = (  -0.2500000   1.5877132   0.2329997  )
        16        Zn     tau(  16) = (  -0.2456974   1.5866795   1.1979144  )
        17        Zn     tau(  17) = (   0.2500000   0.1443376   0.6989991  )
        18        Zn     tau(  18) = (   0.2551481   0.1411338   1.6876935  )
        19        Zn     tau(  19) = (   0.0000000   0.5773503   0.6989991  )
        20        Zn     tau(  20) = (   0.0048998   0.5755142   1.6831576  )
        21        Zn     tau(  21) = (  -0.2500000   1.0103630   0.6989991  )
        22        Zn     tau(  22) = (  -0.2435885   1.0075174   1.7397184  )
        23        Zn     tau(  23) = (  -0.5000000   1.4433757   0.6989991  )
        24        Zn     tau(  24) = (  -0.4944341   1.4387886   1.6839201  )
        25        Zn     tau(  25) = (   0.7500000   0.1443376   0.6989991  )
        26        Zn     tau(  26) = (   0.7551280   0.1413605   1.6878386  )
        27        Zn     tau(  27) = (   0.5000000   0.5773503   0.6989991  )
        28        Zn     tau(  28) = (   0.5056208   0.5751121   1.6828126  )
        29        Zn     tau(  29) = (   0.2500000   1.0103630   0.6989991  )
        30        Zn     tau(  30) = (   0.2554963   1.0069660   1.6860908  )
        31        Zn     tau(  31) = (   0.0000000   1.4433757   0.6989991  )
        32        Zn     tau(  32) = (   0.0050931   1.4391779   1.6879795  )
        33        O      tau(  33) = (  -0.2565909   0.9839755   2.2533506  )
        34        H      tau(  34) = (  -0.4168516   1.0745438   2.2904454  )
        35        H      tau(  35) = (  -0.3052414   0.8027117   2.2588922  )

   Crystallographic axes

     site n.     atom                  positions (cryst. coord.)
         1        Zn     tau(   1) = (  0.1666667  0.1666667  0.0513044  )
         2        Zn     tau(   2) = (  0.1706928  0.1666937  0.2627272  )
         3        Zn     tau(   3) = (  0.1666667  0.4166667  0.0513044  )
         4        Zn     tau(   4) = (  0.1718181  0.4176331  0.2636570  )
         5        Zn     tau(   5) = (  0.1666667  0.6666667  0.0513044  )
         6        Zn     tau(   6) = (  0.1710388  0.6662813  0.2632580  )
         7        Zn     tau(   7) = (  0.1666667  0.9166667  0.0513044  )
         8        Zn     tau(   8) = (  0.1701880  0.9161428  0.2629273  )
         9        Zn     tau(   9) = (  0.6666667  0.1666667  0.0513044  )
        10        Zn     tau(  10) = (  0.6709112  0.1666827  0.2628302  )
        11        Zn     tau(  11) = (  0.6666667  0.4166667  0.0513044  )
        12        Zn     tau(  12) = (  0.6713554  0.4172320  0.2634198  )
        13        Zn     tau(  13) = (  0.6666667  0.6666667  0.0513044  )
        14        Zn     tau(  14) = (  0.6697899  0.6662500  0.2633889  )
        15        Zn     tau(  15) = (  0.6666667  0.9166667  0.0513044  )
        16        Zn     tau(  16) = (  0.6703725  0.9160698  0.2637696  )
        17        Zn     tau(  17) = (  0.3333333  0.0833333  0.1539131  )
        18        Zn     tau(  18) = (  0.3366317  0.0814836  0.3716144  )
        19        Zn     tau(  19) = (  0.3333333  0.3333333  0.1539131  )
        20        Zn     tau(  20) = (  0.3371731  0.3322733  0.3706157  )
        21        Zn     tau(  21) = (  0.3333333  0.5833333  0.1539131  )
        22        Zn     tau(  22) = (  0.3381019  0.5816904  0.3830699  )
        23        Zn     tau(  23) = (  0.3333333  0.8333333  0.1539131  )
        24        Zn     tau(  24) = (  0.3362508  0.8306850  0.3707836  )
        25        Zn     tau(  25) = (  0.8333333  0.0833333  0.1539131  )
        26        Zn     tau(  26) = (  0.8367425  0.0816145  0.3716464  )
        27        Zn     tau(  27) = (  0.8333333  0.3333333  0.1539131  )
        28        Zn     tau(  28) = (  0.8376620  0.3320411  0.3705397  )
        29        Zn     tau(  29) = (  0.8333333  0.5833333  0.1539131  )
        30        Zn     tau(  30) = (  0.8368684  0.5813721  0.3712616  )
        31        Zn     tau(  31) = (  0.8333333  0.8333333  0.1539131  )
        32        Zn     tau(  32) = (  0.8360028  0.8309097  0.3716774  )
        33        O      tau(  33) = (  0.3115076  0.5680985  0.4961669  )
        34        H      tau(  34) = (  0.2035365  0.6203881  0.5043348  )
        35        H      tau(  35) = (  0.1582045  0.4634458  0.4973871  )

     number of k points=     5  Marzari-Vanderbilt smearing, width (Ry)=  0.0200
                       cart. coord. in units 2pi/alat
        k(    1) = (   0.0000000   0.0000000   0.0000000), wk =   0.2222222
        k(    2) = (   0.0000000   0.1924501   0.0000000), wk =   0.4444444
        k(    3) = (   0.3333333   0.1924501   0.0000000), wk =   0.4444444
        k(    4) = (   0.3333333   0.3849002   0.0000000), wk =   0.4444444
        k(    5) = (   0.3333333  -0.0000000   0.0000000), wk =   0.4444444

                       cryst. coord.
        k(    1) = (   0.0000000   0.0000000   0.0000000), wk =   0.2222222
        k(    2) = (   0.0000000   0.3333333   0.0000000), wk =   0.4444444
        k(    3) = (   0.3333333   0.0000000   0.0000000), wk =   0.4444444
        k(    4) = (   0.3333333   0.3333333   0.0000000), wk =   0.4444444
        k(    5) = (   0.3333333  -0.3333333   0.0000000), wk =   0.4444444

     Check: negative core charge=   -0.000002

     Initial potential from superposition of free atoms

     starting charge     647.9955, renormalised to     648.0000

     negative rho (up, down):  3.826E-03 0.000E+00
     Starting wfcs are  422 randomized atomic wfcs
[psid01:23704] Set MCA parameter "orte_base_help_aggregate" to 0 to see all help / error messages
     Checking if some PAW data can be deallocated...

     Self-consistent Calculation

[...]
     atom    6 type  1   force =     1.21128324   -0.60152354  131.54784361
     atom    7 type  1   force =    -0.00016485   -0.03101098 -411.45148913
     atom    8 type  1   force =    -0.09159376    0.11489102  129.67356012
     atom    9 type  1   force =     0.00444866    0.00847450 -411.47265941
     atom   10 type  1   force =     0.04111667   -0.23900991  129.47692997
     atom   11 type  1   force =    -0.00014668    0.03049952 -411.42500156
     atom   12 type  1   force =    -0.00572982    0.14353604  129.98205032
     atom   13 type  1   force =    -0.00424866   -0.00793152 -411.40160724
     atom   14 type  1   force =    -1.23688696   -0.48084805  131.99531733
     atom   15 type  1   force =     0.00009179   -0.03086688 -411.43725895
     atom   16 type  1   force =     0.07062231   -0.07666735  131.50069693
     atom   17 type  1   force =     0.03299294   -0.07475986 -134.86193502
     atom   18 type  1   force =    -0.03550442   -0.16419758  397.91604140
     atom   19 type  1   force =    -0.05686530    0.26225362 -134.58404019
     atom   20 type  1   force =     0.57425984   -3.47459536  391.44198541
     atom   21 type  1   force =     0.03752610   -0.00681486 -134.41518689
     atom   22 type  1   force =     0.06805000    0.54786374  406.22632285
     atom   23 type  1   force =     0.15677391   -0.11979265 -134.53565386
     atom   24 type  1   force =    -0.51758334    3.25093112  391.81587124
     atom   25 type  1   force =    -0.00026469   -0.18154616 -134.70020621
     atom   26 type  1   force =     0.04203022   -0.17355378  397.88730623
     atom   27 type  1   force =     0.08638051    0.24191435 -134.56758622
     atom   28 type  1   force =    -0.56192950   -3.35269899  391.12685148
     atom   29 type  1   force =    -0.00614804    0.01828846 -134.49352337
     atom   30 type  1   force =     0.00679755    0.41467266  388.39936949
     atom   31 type  1   force =    -0.12506028   -0.14496228 -134.51064048
     atom   32 type  1   force =     0.56465093    3.29241901  393.75077025
     atom   33 type  3   force =     3.67749733    1.49739686  122.86435806
     atom   34 type  2   force =    -3.02502519    1.93323203   20.44251306
     atom   35 type  2   force =    -0.82600793   -3.71057153   20.43959102
     The local contribution  to forces
     atom    1 type  1   force =     0.00233358   -0.01576198  411.36970036
     atom    2 type  1   force =     0.06542894    0.22256780 -129.23864917
     atom    3 type  1   force =    -0.00113074   -0.04184630  411.31715302
     atom    4 type  1   force =     0.02306363   -1.28621819 -132.25792779
     atom    5 type  1   force =    -0.00785322   -0.00076961  411.30108772
     atom    6 type  1   force =    -1.18470309    0.57944029 -131.46653674
     atom    7 type  1   force =    -0.00070606    0.01667630  411.34713002
     atom    8 type  1   force =     0.08950403   -0.11901066 -129.59448225
     atom    9 type  1   force =    -0.00334917   -0.01594050  411.36643328
     atom   10 type  1   force =    -0.04057229    0.22721939 -129.39462693
     atom   11 type  1   force =    -0.00045388   -0.04193893  411.32193350
     atom   12 type  1   force =     0.00456573   -0.13221609 -129.88464114
     atom   13 type  1   force =     0.00671074   -0.00019755  411.30136523
     atom   14 type  1   force =     1.21440799    0.45988757 -131.91874274
     atom   15 type  1   force =    -0.00087368    0.02269605  411.33528903
     atom   16 type  1   force =    -0.06494048    0.06421410 -131.40639451
     atom   17 type  1   force =    -0.03685045    0.07990656  134.80695077
     atom   18 type  1   force =     0.03527257    0.17143192 -397.83437922
     atom   19 type  1   force =     0.05387436   -0.25468757  134.52383474
     atom   20 type  1   force =    -0.58101555    3.50014406 -391.33000708
     atom   21 type  1   force =    -0.03758881    0.01451528  134.35630228
     atom   22 type  1   force =    -0.05449193   -0.52676082 -406.38119260
     atom   23 type  1   force =    -0.15906304    0.12395015  134.47625125
     atom   24 type  1   force =     0.52339232   -3.26078580 -391.70220691
     atom   25 type  1   force =    -0.00085063    0.18631068  134.63741327
     atom   26 type  1   force =    -0.04024466    0.18119491 -397.80893559
     atom   27 type  1   force =    -0.08734505   -0.23425283  134.50684633
     atom   28 type  1   force =     0.56926760    3.37539111 -391.00716621
     atom   29 type  1   force =     0.00175870   -0.01080626  134.44100626
     atom   30 type  1   force =    -0.01042808   -0.40254882 -388.27062457
     atom   31 type  1   force =     0.12329011    0.14822911  134.45205027
     atom   32 type  1   force =    -0.56928862   -3.30373674 -393.65546137
     atom   33 type  3   force =    -1.56694211   -0.59166526 -123.22413901
     atom   34 type  2   force =     2.94913325   -1.88613132  -20.42517801
     atom   35 type  2   force =     0.80574449    3.62168967  -20.43763858
     The core correction contribution to forces
     atom    1 type  1   force =     0.00000000    0.00000000    0.00000000
     atom    2 type  1   force =     0.00000000    0.00000000    0.00000000
     atom    3 type  1   force =     0.00000000    0.00000000    0.00000000
     atom    4 type  1   force =     0.00000000    0.00000000    0.00000000
     atom    5 type  1   force =     0.00000000    0.00000000    0.00000000
     atom    6 type  1   force =     0.00000000    0.00000000    0.00000000
     atom    7 type  1   force =     0.00000000    0.00000000    0.00000000
     atom    8 type  1   force =     0.00000000    0.00000000    0.00000000
     atom    9 type  1   force =     0.00000000    0.00000000    0.00000000
     atom   10 type  1   force =     0.00000000    0.00000000    0.00000000
     atom   11 type  1   force =     0.00000000    0.00000000    0.00000000
     atom   12 type  1   force =     0.00000000    0.00000000    0.00000000
     atom   13 type  1   force =     0.00000000    0.00000000    0.00000000
     atom   14 type  1   force =     0.00000000    0.00000000    0.00000000
     atom   15 type  1   force =     0.00000000    0.00000000    0.00000000
     atom   16 type  1   force =     0.00000000    0.00000000    0.00000000
     atom   17 type  1   force =     0.00000000    0.00000000    0.00000000
     atom   18 type  1   force =     0.00000000    0.00000000    0.00000000
     atom   19 type  1   force =     0.00000000    0.00000000    0.00000000
     atom   20 type  1   force =     0.00000000    0.00000000    0.00000000
     atom   21 type  1   force =     0.00000000    0.00000000    0.00000000
     atom   22 type  1   force =     0.00000000    0.00000000    0.00000000
     atom   23 type  1   force =     0.00000000    0.00000000    0.00000000
     atom   24 type  1   force =     0.00000000    0.00000000    0.00000000
     atom   25 type  1   force =     0.00000000    0.00000000    0.00000000
     atom   26 type  1   force =     0.00000000    0.00000000    0.00000000
     atom   27 type  1   force =     0.00000000    0.00000000    0.00000000
     atom   28 type  1   force =     0.00000000    0.00000000    0.00000000
     atom   29 type  1   force =     0.00000000    0.00000000    0.00000000
     atom   30 type  1   force =     0.00000000    0.00000000    0.00000000
     atom   31 type  1   force =     0.00000000    0.00000000    0.00000000
     atom   32 type  1   force =     0.00000000    0.00000000    0.00000000
     atom   33 type  3   force =     0.02145699    0.00919961   -0.00404672
     atom   34 type  2   force =     0.00000000    0.00000000    0.00000000
     atom   35 type  2   force =     0.00000000    0.00000000    0.00000000
     The Hubbard contrib.    to forces
     atom    1 type  1   force =     0.00000000    0.00000000    0.00000000
     atom    2 type  1   force =     0.00000000    0.00000000    0.00000000
     atom    3 type  1   force =     0.00000000    0.00000000    0.00000000
     atom    4 type  1   force =     0.00000000    0.00000000    0.00000000
     atom    5 type  1   force =     0.00000000    0.00000000    0.00000000
     atom    6 type  1   force =     0.00000000    0.00000000    0.00000000
     atom    7 type  1   force =     0.00000000    0.00000000    0.00000000
     atom    8 type  1   force =     0.00000000    0.00000000    0.00000000
     atom    9 type  1   force =     0.00000000    0.00000000    0.00000000
     atom   10 type  1   force =     0.00000000    0.00000000    0.00000000
     atom   11 type  1   force =     0.00000000    0.00000000    0.00000000
     atom   12 type  1   force =     0.00000000    0.00000000    0.00000000
     atom   13 type  1   force =     0.00000000    0.00000000    0.00000000
     atom   14 type  1   force =     0.00000000    0.00000000    0.00000000
     atom   15 type  1   force =     0.00000000    0.00000000    0.00000000
     atom   16 type  1   force =     0.00000000    0.00000000    0.00000000
     atom   17 type  1   force =     0.00000000    0.00000000    0.00000000
     atom   18 type  1   force =     0.00000000    0.00000000    0.00000000
     atom   19 type  1   force =     0.00000000    0.00000000    0.00000000
     atom   20 type  1   force =     0.00000000    0.00000000    0.00000000
     atom   21 type  1   force =     0.00000000    0.00000000    0.00000000
     atom   22 type  1   force =     0.00000000    0.00000000    0.00000000
     atom   23 type  1   force =     0.00000000    0.00000000    0.00000000
     atom   24 type  1   force =     0.00000000    0.00000000    0.00000000
     atom   25 type  1   force =     0.00000000    0.00000000    0.00000000
     atom   26 type  1   force =     0.00000000    0.00000000    0.00000000
     atom   27 type  1   force =     0.00000000    0.00000000    0.00000000
     atom   28 type  1   force =     0.00000000    0.00000000    0.00000000
     atom   29 type  1   force =     0.00000000    0.00000000    0.00000000
     atom   30 type  1   force =     0.00000000    0.00000000    0.00000000
     atom   31 type  1   force =     0.00000000    0.00000000    0.00000000
     atom   32 type  1   force =     0.00000000    0.00000000    0.00000000
     atom   33 type  3   force =     0.00000000    0.00000000    0.00000000
     atom   34 type  2   force =     0.00000000    0.00000000    0.00000000
     atom   35 type  2   force =     0.00000000    0.00000000    0.00000000
     The SCF correction term to forces
     atom    1 type  1   force =     0.00000000   -0.00000000    0.00000000
     atom    2 type  1   force =    -0.00000684    0.00020025    0.00045474
     atom    3 type  1   force =     0.00000000   -0.00000000    0.00000000
     atom    4 type  1   force =    -0.00007840    0.00039223    0.00047287
     atom    5 type  1   force =    -0.00000000    0.00000000    0.00000000
     atom    6 type  1   force =     0.00009190   -0.00033318    0.00009120
     atom    7 type  1   force =    -0.00000000   -0.00000000    0.00000000
     atom    8 type  1   force =     0.00005540   -0.00020179    0.00013524
     atom    9 type  1   force =    -0.00000000   -0.00000000    0.00000000
     atom   10 type  1   force =     0.00000528    0.00021664    0.00048565
     atom   11 type  1   force =    -0.00000000   -0.00000000    0.00000000
     atom   12 type  1   force =     0.00007902    0.00033590    0.00047994
     atom   13 type  1   force =     0.00000000    0.00000000    0.00000000
     atom   14 type  1   force =    -0.00009223   -0.00032590    0.00010418
     atom   15 type  1   force =     0.00000000   -0.00000000    0.00000000
     atom   16 type  1   force =    -0.00005454   -0.00024408    0.00012662
     atom   17 type  1   force =     0.00000000   -0.00000000    0.00000000
     atom   18 type  1   force =     0.00002083    0.00039385    0.00085899
     atom   19 type  1   force =     0.00000000    0.00000000    0.00000000
     atom   20 type  1   force =     0.00002787   -0.00026183    0.00046923
     atom   21 type  1   force =    -0.00000000    0.00000000    0.00000000
     atom   22 type  1   force =     0.00007504   -0.00027566   -0.00012587
     atom   23 type  1   force =    -0.00000000   -0.00000000    0.00000000
     atom   24 type  1   force =    -0.00000444    0.00021804    0.00052016
     atom   25 type  1   force =    -0.00000000   -0.00000000    0.00000000
     atom   26 type  1   force =    -0.00002029    0.00037724    0.00086245
     atom   27 type  1   force =    -0.00000000    0.00000000    0.00000000
     atom   28 type  1   force =    -0.00002933   -0.00031217    0.00041254
     atom   29 type  1   force =     0.00000000    0.00000000    0.00000000
     atom   30 type  1   force =    -0.00006850   -0.00031146    0.00010957
     atom   31 type  1   force =     0.00000000   -0.00000000    0.00000000
     atom   32 type  1   force =     0.00000481    0.00017249    0.00056876
     atom   33 type  3   force =    -0.00004502   -0.00003954   -0.00002315
     atom   34 type  2   force =    -0.00000837   -0.00000001   -0.00000274
     atom   35 type  2   force =    -0.00000448   -0.00001417   -0.00000692

     Total force =     0.027536     Total SCF correction =     0.002209

     Computing stress (Cartesian axis) and pressure

     negative rho (up, down):  3.297E-03 0.000E+00
          total   stress  (Ry/bohr**3)                   (kbar)     P=       -3.38
  -0.00010011   0.00000070  -0.00000161          -14.73        0.10       -0.24
   0.00000070   0.00001321  -0.00000089            0.10        1.94       -0.13
  -0.00000161  -0.00000089   0.00001800           -0.24       -0.13        2.65

     kinetic stress (kbar)  16840.47      7.81      7.75
                                7.81  16841.97     -2.89
                                7.75     -2.89  16974.00

     local   stress (kbar)**********     27.30     73.55
                               27.30**********     16.90
                               73.55     16.901502375.46

     nonloc. stress (kbar)  -1694.82     -0.10      0.41
                               -0.10  -1688.37     -0.27
                                0.41     -0.27  -1762.39

     hartree stress (kbar) 778745.52     -6.99    -26.72
                               -6.99 778583.39     -9.48
                              -26.72     -9.48-703988.52

     exc-cor stress (kbar)  -8421.35     -0.09     -0.11
                               -0.09  -8420.98      0.02
                               -0.11      0.02  -8433.15

     corecor stress (kbar)     -8.24     -0.01     -0.02
                               -0.01     -8.21      0.00
                               -0.02      0.00     -8.31

     ewald   stress (kbar) 698766.60    -27.80    -55.10
                              -27.80 698628.75     -4.42
                              -55.10     -4.42-805154.43

     hubbard stress (kbar)      0.00      0.00      0.00
                                0.00      0.00      0.00
                                0.00      0.00      0.00

     DFT-D   stress (kbar)      0.00      0.00      0.00
                                0.00      0.00      0.00
                                0.00      0.00      0.00

     XDM     stress (kbar)      0.00      0.00      0.00
                                0.00      0.00      0.00
                                0.00      0.00      0.00

     dft-nl  stress (kbar)      0.00      0.00      0.00
                                0.00      0.00      0.00
                                0.00      0.00      0.00

     TS-vdW  stress (kbar)      0.00      0.00      0.00
                                0.00      0.00      0.00
                                0.00      0.00      0.00

     MDB     stress (kbar)      0.00      0.00      0.00
                                0.00      0.00      0.00
                                0.00      0.00      0.00

     3D-RISM stress (kbar)      0.00      0.00      0.00
                                0.00      0.00      0.00
                                0.00      0.00      0.00

     Writing all to output data dir ./tmp/Zn002_2x2x4_scf_H2O.save/ :
     XML data file, charge density, pseudopotentials, collected wavefunctions

     General routines

     Parallel routines

     PAW routines

   This run was terminated on:  11:37:42  17Mar2025

   JOB DONE.
Note: The following floating-point exceptions are signalling: IEEE_DENORMAL
Note: The following floating-point exceptions are signalling: IEEE_DENORMAL
Note: The following floating-point exceptions are signalling: IEEE_DENORMAL
Note: The following floating-point exceptions are signalling: IEEE_DENORMAL
Note: The following floating-point exceptions are signalling: IEEE_DENORMAL
Note: The following floating-point exceptions are signalling: IEEE_DENORMAL