     Program PWSCF v.7.3.1 starts on 14Apr2025 at  3:20:56

     Waiting for input...
     Reading input from standard input
Warning: card &CELL ignored
Warning: card   CELL_DOFREE = 'ALL' ignored
Warning: card / ignored

     Current dimensions of program PWSCF are:
     Max number of different atomic species (ntypx) = 10
     Max number of k-points (npk) =  40000
     Max angular momentum in pseudopotentials (lmaxx) =  4
     file C.pbe-n-kjpaw_psl.1.0.0.UPF: wavefunction(s)  2S 2P renormalized

     R & G space division:  proc/nbgrp/npool/nimage =      33
     Subspace diagonalization in iterative solution of the eigenvalue problem:
     one sub-group per band group will be used

     Using Slab Decomposition

     bravais-lattice index     =            0
     lattice parameter (alat)  =      20.9009  a.u.
     unit-cell volume          =   16846.7507 (a.u.)^3
     number of atoms/cell      =           65
     number of atomic types    =            4
     number of electrons       =      1002.00
     number of Kohn-Sham states=          601
     kinetic-energy cutoff     =      40.0000  Ry
     charge density cutoff     =     280.0000  Ry
     scf convergence threshold =      1.0E-06
     mixing beta               =       0.4000
     number of iterations used =            8  plain     mixing
     energy convergence thresh.=      5.0E-05
     force convergence thresh. =      1.0E-03
     Exchange-correlation= PBE
                           (   1   4   3   4   0   0   0)
     nstep                     =          300

     celldm(1)=  20.900943  celldm(2)=   0.000000  celldm(3)=   0.000000
     celldm(4)=   0.000000  celldm(5)=   0.000000  celldm(6)=   0.000000

     crystal axes: (cart. coord. in units of alat)
               a(1) = (   1.000000   0.000000   0.000000 )
               a(2) = (  -0.223489   0.918700   0.000000 )
               a(3) = (  -4.200249  -1.021781   2.008375 )

     reciprocal axes: (cart. coord. in units 2 pi/alat)
               b(1) = (  1.000000  0.243267  2.215131 )
               b(2) = ( -0.000000  1.088495  0.553783 )
               b(3) = (  0.000000 -0.000000  0.497915 )

     PseudoPot. # 1 for Zn read from file:
     /home/ys/qepseudo/SSSP_1.3.0_PBE_efficiency/Zn_pbe_v1.uspp.F.UPF
     MD5 check sum: df62231357ef9e81f77b2b3087fa5675
     Pseudo is Ultrasoft, Zval = 20.0
     Generated by new atomic code, or converted to UPF format
     Using radial grid of  943 points,  6 beta functions with:
                l(1) =   0
                l(2) =   0
                l(3) =   1
                l(4) =   1
                l(5) =   2
                l(6) =   2
     Q(r) pseudized with  8 coefficients,  rinner =    1.100   1.100   1.100
                                                       1.100   1.100

     PseudoPot. # 2 for N  read from file:
     /home/ys/qepseudo/SSSP_1.3.0_PBE_efficiency/N.pbe-n-radius_5.UPF
     MD5 check sum: 16739722b17309cd8fe442a2ace49922
     Pseudo is Ultrasoft + core correction, Zval =  5.0
     Generated using "atomic" code by A. Dal Corso  v.5.1
     Using radial grid of 1085 points,  4 beta functions with:
                l(1) =   0
                l(2) =   0
                l(3) =   1
                l(4) =   1
     Q(r) pseudized with 0 coefficients

     PseudoPot. # 3 for C  read from file:
     /home/ys/qepseudo/SSSP_1.3.0_PBE_efficiency/C.pbe-n-kjpaw_psl.1.0.0.UPF
     MD5 check sum: 5d2aebdfa2cae82b50a7e79e9516da0f
     Pseudo is Projector augmented-wave + core cor, Zval =  4.0
     Generated using "atomic" code by A. Dal Corso  v.5.1
     Shape of augmentation charge: PSQ
     Using radial grid of 1073 points,  4 beta functions with:
                l(1) =   0
                l(2) =   0
                l(3) =   1
                l(4) =   1
     Q(r) pseudized with 0 coefficients

     PseudoPot. # 4 for H  read from file:
     /home/ys/qepseudo/SSSP_1.3.0_PBE_efficiency/H.pbe-rrkjus_psl.1.0.0.UPF
     MD5 check sum: f52b6d4d1c606e5624b1dc7b2218f220
     Pseudo is Ultrasoft, Zval =  1.0
     Generated using "atomic" code by A. Dal Corso  v.5.1
     Using radial grid of  929 points,  2 beta functions with:
                l(1) =   0
                l(2) =   0
     Q(r) pseudized with 0 coefficients

     atomic species   valence    mass     pseudopotential
     Zn               20.00    65.38000     Zn( 1.00)
     N                 5.00    14.00674     N ( 1.00)
     C                 4.00    12.01070     C ( 1.00)
     H                 1.00     1.00794     H ( 1.00)

     No symmetry found

                                    s                        frac. trans.

      isym =  1     identity

 cryst.   s( 1) = (     1          0          0      )
                  (     0          1          0      )
                  (     0          0          1      )

 cart.    s( 1) = (  1.0000000  0.0000000  0.0000000 )
                  (  0.0000000  1.0000000  0.0000000 )
                  (  0.0000000  0.0000000  1.0000000 )

   Cartesian axes

     site n.     atom                  positions (alat units)
         1        Zn     tau(   1) = (  -0.0970639   0.0980210   0.1082940  )
         2        Zn     tau(   2) = (  -0.2088085   0.5573710   0.1082940  )
         3        Zn     tau(   3) = (  -0.4436296   0.0133021   0.3267644  )
         4        Zn     tau(   4) = (  -0.5553466   0.4727589   0.3266326  )
         5        Zn     tau(   5) = (  -0.8015675  -0.0738560   0.5204735  )
         6        Zn     tau(   6) = (  -0.9136705   0.3857182   0.5203452  )
         7        Zn     tau(   7) = (  -0.1529361   0.3276960   0.1082940  )
         8        Zn     tau(   8) = (  -0.2646808   0.7870460   0.1082940  )
         9        Zn     tau(   9) = (  -0.4994158   0.2431043   0.3267310  )
        10        Zn     tau(  10) = (  -0.6113085   0.7023487   0.3266788  )
        11        Zn     tau(  11) = (  -0.8577155   0.1559534   0.5203020  )
        12        Zn     tau(  12) = (  -0.9693047   0.6153537   0.5205194  )
        13        Zn     tau(  13) = (   0.4029362   0.0980210   0.1082940  )
        14        Zn     tau(  14) = (   0.2911915   0.5573710   0.1082940  )
        15        Zn     tau(  15) = (   0.0565086   0.0133360   0.3241562  )
        16        Zn     tau(  16) = (  -0.0552146   0.4727957   0.3239770  )
        17        Zn     tau(  17) = (  -0.2990019  -0.0732614   0.5203282  )
        18        Zn     tau(  18) = (  -0.4111263   0.3864037   0.5201985  )
        19        Zn     tau(  19) = (   0.3470638   0.3276960   0.1082940  )
        20        Zn     tau(  20) = (   0.2353192   0.7870460   0.1082940  )
        21        Zn     tau(  21) = (   0.0007168   0.2430908   0.3241551  )
        22        Zn     tau(  22) = (  -0.1111493   0.7024087   0.3239982  )
        23        Zn     tau(  23) = (  -0.3551819   0.1565713   0.5201829  )
        24        Zn     tau(  24) = (  -0.4667146   0.6159736   0.5203598  )
        25        Zn     tau(  25) = (   0.1529361   0.0372043   0.0773528  )
        26        Zn     tau(  26) = (   0.0411915   0.4965543   0.0773528  )
        27        Zn     tau(  27) = (  -0.2122732  -0.0516715   0.2654630  )
        28        Zn     tau(  28) = (  -0.3239465   0.4077318   0.2654478  )
        29        Zn     tau(  29) = (  -0.5765287  -0.1406552   0.4574179  )
        30        Zn     tau(  30) = (  -0.6884677   0.3189336   0.4575418  )
        31        Zn     tau(  31) = (   0.0970639   0.2668793   0.0773528  )
        32        Zn     tau(  32) = (  -0.0146808   0.7262293   0.0773528  )
        33        Zn     tau(  33) = (  -0.2680871   0.1780502   0.2653609  )
        34        Zn     tau(  34) = (  -0.3798692   0.6373411   0.2655337  )
        35        Zn     tau(  35) = (  -0.6325059   0.0891251   0.4575687  )
        36        Zn     tau(  36) = (  -0.7442124   0.5485014   0.4573723  )
        37        Zn     tau(  37) = (   0.6529362   0.0372043   0.0773528  )
        38        Zn     tau(  38) = (   0.5411915   0.4965543   0.0773528  )
        39        Zn     tau(  39) = (   0.2881095  -0.0515887   0.2651273  )
        40        Zn     tau(  40) = (   0.1764595   0.4078348   0.2650500  )
        41        Zn     tau(  41) = (  -0.0738569  -0.1399537   0.4576836  )
        42        Zn     tau(  42) = (  -0.1858471   0.3195453   0.4578116  )
        43        Zn     tau(  43) = (   0.5970639   0.2668793   0.0773528  )
        44        Zn     tau(  44) = (   0.4853193   0.7262293   0.0773528  )
        45        Zn     tau(  45) = (   0.2323041   0.1780975   0.2650220  )
        46        Zn     tau(  46) = (   0.1205228   0.6374688   0.2651506  )
        47        Zn     tau(  47) = (  -0.1298290   0.0898017   0.4578049  )
        48        Zn     tau(  48) = (  -0.2415973   0.5491238   0.4576724  )
        49        H      tau(  49) = (  -0.9323176   0.1601554   1.3802604  )
        50        C      tau(  50) = (  -0.8441671   0.1337097   1.3423054  )
        51        C      tau(  51) = (  -0.8247103   0.0261957   1.0134476  )
        52        C      tau(  52) = (  -0.8743020   0.2370774   1.1402666  )
        53        C      tau(  53) = (  -0.8523924   0.1318728   0.9483826  )
        54        C      tau(  54) = (  -0.8467275   0.1321507   1.2060419  )
        55        C      tau(  55) = (  -0.8772261   0.2378379   1.0145172  )
        56        C      tau(  56) = (  -0.8221084   0.0272311   1.1395326  )
        57        N      tau(  57) = (  -0.8552922   0.1319789   0.8237021  )
        58        H      tau(  58) = (  -0.8051411  -0.0573036   0.9644225  )
        59        H      tau(  59) = (  -0.8941166   0.3208171   1.1888597  )
        60        H      tau(  60) = (  -0.8211767   0.0444369   1.3791713  )
        61        H      tau(  61) = (  -0.8751288   0.2078144   0.7772206  )
        62        H      tau(  62) = (  -0.8374867   0.0562619   0.7761472  )
        63        H      tau(  63) = (  -0.8991085   0.3212385   0.9662655  )
        64        H      tau(  64) = (  -0.8003171  -0.0564796   1.1872871  )
        65        H      tau(  65) = (  -0.7771341   0.1987008   1.3768573  )

     DFT-D3 Dispersion Correction (3-body terms):
       Reference C6 values for interpolation:

         atom   Coordination number   C6
         H          0.912             6.05
         H          0.000            15.18
         C          0.000            98.23
         C          0.987            86.49
         C          1.998            58.72
         C          2.999            51.56
         C          3.984            36.41
         N          0.000            50.54
         N          0.994            44.25
         N          2.014            39.35
         N          2.990            31.16
         Zn         0.000           681.04
         Zn         1.942           306.91

       Values used:

         atom   Coordination number  R0_AB[au]  C6      C8
         Zn         5.577            3.053    306.91  23930.67
         Zn         5.581            3.053    306.91  23930.67
         Zn         7.262            3.053    306.91  23930.67
         Zn         7.270            3.053    306.91  23930.67
[...]
     atom   36 type  1   force =     0.00004307    0.00007237   -0.00012699
     atom   37 type  1   force =    -0.00000000   -0.00000000    0.00000000
     atom   38 type  1   force =    -0.00000000   -0.00000000    0.00000000
     atom   39 type  1   force =     0.00012838   -0.00010715   -0.00007063
     atom   40 type  1   force =    -0.00001047    0.00013832   -0.00008250
     atom   41 type  1   force =    -0.00011577   -0.00004756   -0.00007357
     atom   42 type  1   force =    -0.00009791   -0.00000723   -0.00009491
     atom   43 type  1   force =    -0.00000000    0.00000000    0.00000000
     atom   44 type  1   force =    -0.00000000   -0.00000000    0.00000000
     atom   45 type  1   force =     0.00006951    0.00004073   -0.00007514
     atom   46 type  1   force =     0.00004073   -0.00001670   -0.00006668
     atom   47 type  1   force =    -0.00019614   -0.00000067   -0.00007542
     atom   48 type  1   force =    -0.00002566   -0.00005325   -0.00008229
     atom   49 type  4   force =    -0.00000041   -0.00000110   -0.00000059
     atom   50 type  3   force =    -0.00000023   -0.00000654   -0.00000186
     atom   51 type  3   force =    -0.00000298    0.00001157   -0.00000837
     atom   52 type  3   force =    -0.00000207   -0.00000428   -0.00001427
     atom   53 type  3   force =    -0.00000832    0.00000225    0.00000141
     atom   54 type  3   force =    -0.00000386   -0.00000133   -0.00000449
     atom   55 type  3   force =    -0.00000202   -0.00000468   -0.00001093
     atom   56 type  3   force =    -0.00000568    0.00001048   -0.00001519
     atom   57 type  2   force =    -0.00005082    0.00000354    0.00003739
     atom   58 type  4   force =    -0.00000080    0.00000362    0.00000150
     atom   59 type  4   force =    -0.00000050    0.00000034   -0.00000152
     atom   60 type  4   force =    -0.00000069    0.00000142    0.00000094
     atom   61 type  4   force =    -0.00000574   -0.00000130    0.00000740
     atom   62 type  4   force =    -0.00000561   -0.00000064    0.00000603
     atom   63 type  4   force =     0.00000026   -0.00000338    0.00000128
     atom   64 type  4   force =    -0.00000022   -0.00000108    0.00000006
     atom   65 type  4   force =     0.00000043   -0.00000088    0.00000000

     DFT-D3 dispersion contribution to forces:
     atom    1 type  1   force =    -0.00122160   -0.00029248    0.00221792
     atom    2 type  1   force =    -0.00124211   -0.00029472    0.00217038
     atom    3 type  1   force =     0.00101209    0.00024043    0.00056787
     atom    4 type  1   force =     0.00100704    0.00021683    0.00055669
     atom    5 type  1   force =     0.00030309    0.00061054   -0.00101565
     atom    6 type  1   force =     0.00056684   -0.00037900   -0.00116149
     atom    7 type  1   force =    -0.00123029   -0.00030503    0.00218923
     atom    8 type  1   force =    -0.00123349   -0.00028410    0.00219864
     atom    9 type  1   force =     0.00100624    0.00022255    0.00056375
     atom   10 type  1   force =     0.00102356    0.00023439    0.00057968
     atom   11 type  1   force =     0.00041304   -0.00001388   -0.00068482
     atom   12 type  1   force =     0.00045235    0.00014837   -0.00179720
     atom   13 type  1   force =    -0.00131635   -0.00031078    0.00209934
     atom   14 type  1   force =    -0.00130459   -0.00031212    0.00207969
     atom   15 type  1   force =     0.00095785    0.00021942    0.00055639
     atom   16 type  1   force =     0.00095041    0.00020981    0.00044333
     atom   17 type  1   force =     0.00066957    0.00017063   -0.00200922
     atom   18 type  1   force =     0.00063249    0.00014384   -0.00201312
     atom   19 type  1   force =    -0.00131037   -0.00031779    0.00209543
     atom   20 type  1   force =    -0.00130894   -0.00031192    0.00207976
     atom   21 type  1   force =     0.00093680    0.00020644    0.00051700
     atom   22 type  1   force =     0.00094677    0.00022418    0.00045235
     atom   23 type  1   force =     0.00064764    0.00015493   -0.00199632
     atom   24 type  1   force =     0.00064616    0.00015943   -0.00202759
     atom   25 type  1   force =     0.00055698    0.00013925    0.00269109
     atom   26 type  1   force =     0.00056062    0.00013885    0.00265831
     atom   27 type  1   force =    -0.00072134   -0.00015171    0.00002511
     atom   28 type  1   force =    -0.00075125   -0.00017264    0.00002028
     atom   29 type  1   force =    -0.00021298    0.00000536   -0.00320995
     atom   30 type  1   force =    -0.00033633   -0.00018160   -0.00291357
     atom   31 type  1   force =     0.00056107    0.00012836    0.00268732
     atom   32 type  1   force =     0.00056095    0.00013428    0.00266856
     atom   33 type  1   force =    -0.00072532   -0.00017106    0.00002597
     atom   34 type  1   force =    -0.00074512   -0.00016150    0.00002135
     atom   35 type  1   force =    -0.00042703   -0.00002139   -0.00282039
     atom   36 type  1   force =    -0.00017969   -0.00007928   -0.00324413
     atom   37 type  1   force =     0.00059125    0.00014429    0.00260411
     atom   38 type  1   force =     0.00059025    0.00014197    0.00261022
     atom   39 type  1   force =    -0.00075477   -0.00017557    0.00005052
     atom   40 type  1   force =    -0.00075970   -0.00016275    0.00003872
     atom   41 type  1   force =     0.00009000    0.00008446   -0.00310307
     atom   42 type  1   force =     0.00007612   -0.00002762   -0.00315176
     atom   43 type  1   force =     0.00059143    0.00014429    0.00260314
     atom   44 type  1   force =     0.00059022    0.00014226    0.00260612
     atom   45 type  1   force =    -0.00075661   -0.00017041    0.00012891
     atom   46 type  1   force =    -0.00076717   -0.00017378    0.00003146
     atom   47 type  1   force =     0.00020015    0.00003319   -0.00292728
     atom   48 type  1   force =     0.00000779    0.00000921   -0.00322122
     atom   49 type  4   force =    -0.00007474    0.00001393   -0.00010915
     atom   50 type  3   force =    -0.00000447   -0.00001068   -0.00010229
     atom   51 type  3   force =     0.00005448   -0.00019017   -0.00003065
     atom   52 type  3   force =    -0.00002572    0.00010516   -0.00004134
     atom   53 type  3   force =     0.00000410   -0.00000009   -0.00064214
     atom   54 type  3   force =    -0.00000168   -0.00000585   -0.00011255
     atom   55 type  3   force =    -0.00004000    0.00018956   -0.00001340
     atom   56 type  3   force =     0.00002414   -0.00010798   -0.00019764
     atom   57 type  2   force =     0.00003555    0.00001412   -0.00133847
     atom   58 type  4   force =    -0.00000191    0.00001377   -0.00016925
     atom   59 type  4   force =     0.00001373   -0.00005353    0.00005918
     atom   60 type  4   force =     0.00000976   -0.00002859    0.00015307
     atom   61 type  4   force =     0.00006653   -0.00002318   -0.00134716
     atom   62 type  4   force =     0.00004848    0.00005933   -0.00137395
     atom   63 type  4   force =     0.00000211   -0.00000106   -0.00015339
     atom   64 type  4   force =    -0.00001074    0.00004001   -0.00000982
     atom   65 type  4   force =     0.00005664    0.00004880   -0.00011290

     Total force =     0.002694     Total SCF correction =     0.000767

     DFT-D3 dispersion Force =     0.015229
     SCF correction compared to forces is large: reduce conv_thr to get better values

     Computing stress (Cartesian axis) and pressure

     negative rho (up, down):  3.339E-03 0.000E+00
          total   stress  (Ry/bohr**3)                   (kbar)     P=      -13.76
  -0.00015835   0.00000238   0.00000396          -23.29        0.35        0.58
   0.00000238  -0.00011745   0.00000114            0.35      -17.28        0.17
   0.00000396   0.00000114  -0.00000478            0.58        0.17       -0.70

     kinetic stress (kbar)  11691.51     21.16      5.94
                               21.16  11619.94      1.40
                                5.94      1.40  11677.50

     local   stress (kbar)-838622.68   3266.17   2962.96
                             3266.17-851064.23    722.34
                             2962.96    722.34 846544.20

     nonloc. stress (kbar)  -1127.35     -5.94     -2.86
                               -5.94  -1103.02     -0.73
                               -2.86     -0.73  -1139.05

     hartree stress (kbar) 444297.12  -1409.95  -1292.01
                            -1409.95 449661.64   -315.30
                            -1292.01   -315.30-391880.05

     exc-cor stress (kbar)  -5695.41     -1.38     -0.58
                               -1.38  -5690.06     -0.13
                               -0.58     -0.13  -5696.76

     corecor stress (kbar)    -71.33      0.21     -0.02
                                0.21    -72.11     -0.01
                               -0.02     -0.01    -72.09

     ewald   stress (kbar) 389511.27  -1870.36  -1673.27
                            -1870.36 396638.73   -407.50
                            -1673.27   -407.50-459431.13

     hubbard stress (kbar)      0.00      0.00      0.00
                                0.00      0.00      0.00
                                0.00      0.00      0.00

     DFT-D   stress (kbar)     -6.42      0.45      0.41
                                0.45     -8.16      0.10
                                0.41      0.10     -3.33

     XDM     stress (kbar)      0.00      0.00      0.00
                                0.00      0.00      0.00
                                0.00      0.00      0.00

     dft-nl  stress (kbar)      0.00      0.00      0.00
                                0.00      0.00      0.00
                                0.00      0.00      0.00

     TS-vdW  stress (kbar)      0.00      0.00      0.00
                                0.00      0.00      0.00
                                0.00      0.00      0.00

     MDB     stress (kbar)      0.00      0.00      0.00
                                0.00      0.00      0.00
                                0.00      0.00      0.00

     3D-RISM stress (kbar)      0.00      0.00      0.00
                                0.00      0.00      0.00
                                0.00      0.00      0.00

     Energy error            =      1.1E-05 Ry
     Gradient error          =      8.1E-04 Ry/Bohr

     bfgs converged in  15 scf cycles and  14 bfgs steps
     (criteria: energy <  5.0E-05 Ry, force <  1.0E-03 Ry/Bohr)

     End of BFGS Geometry Optimization

     Final energy             =  -22314.4195541559 Ry

     File ./tmp/Zn101_3layer_ptoluidine_relax.bfgs deleted, as requested
Begin final coordinates

ATOMIC_POSITIONS (angstrom)
Zn              -1.0735560000        1.0841420000        1.1977640000    0   0   0
Zn              -2.3094850000        6.1646920000        1.1977640000    0   0   0
Zn              -4.9032959966        0.1490514111        3.6226421347
Zn              -6.1394325376        5.2287502957        3.6208828062
Zn              -8.8771967068       -0.8179037995        5.7591355497
Zn             -10.1099065631        4.2591952319        5.7744645793
Zn              -1.6915200000        3.6244170000        1.1977640000    0   0   0
Zn              -2.9274500000        8.7049670000        1.1977640000    0   0   0
Zn              -5.5208123946        2.6883155249        3.6222737865
Zn              -6.7565334839        7.7698939005        3.6235361012
Zn              -9.4980618361        1.7215056564        5.7035191229
Zn             -10.7258859474        6.8031073942        5.7664288845
Zn               4.4565960000        1.0841420000        1.1977640000    0   0   0
Zn               3.2206660000        6.1646920000        1.1977640000    0   0   0
Zn               0.6196338837        0.1436356368        3.5778546798
Zn              -0.6102579024        5.2286941338        3.5893542471
Zn              -3.3034280582       -0.8067808769        5.7584135646
Zn              -4.5411109856        4.2733462812        5.7574146442
Zn               3.8386310000        3.6244170000        1.1977640000    0   0   0
Zn               2.6027020000        8.7049670000        1.1977640000    0   0   0
Zn              -0.0019187260        2.6898439540        3.5770439555
Zn              -1.2288831988        7.7676831873        3.5866001762
Zn              -3.9224140172        1.7329487706        5.7587291620
Zn              -5.1584114636        6.8140895909        5.7573301841
Zn               1.6915200000        0.4114910000        0.8555450000    0   0   0
Zn               0.4555910000        5.4920410000        0.8555450000    0   0   0
Zn              -2.3452148668       -0.5697521940        2.9367685902
Zn              -3.5832661927        4.5096595600        2.9352789292
Zn              -6.3820496568       -1.5551719474        5.0613943772
Zn              -7.6126752860        3.5282573902        5.0685928794
Zn               1.0735560000        2.9517660000        0.8555450000    0   0   0
Zn              -0.1623740000        8.0323160000        0.8555450000    0   0   0
Zn              -2.9638846944        1.9693858604        2.9363231283
Zn              -4.2006537173        7.0507076422        2.9356610068
Zn              -6.9954142397        0.9847247971        5.0705860596
Zn              -8.2373294484        6.0647295689        5.0617918014
Zn               7.2216720000        0.4114910000        0.8555450000    0   0   0
Zn               5.9857420000        5.4920410000        0.8555450000    0   0   0
Zn               3.1853573375       -0.5700792209        2.9350793372
Zn               1.9487028332        4.5096825696        2.9365733907
Zn              -0.8137118343       -1.5455457026        5.0710447079
Zn              -2.0521707327        3.5344706047        5.0689297514
Zn               6.6037070000        2.9517660000        0.8555450000    0   0   0
Zn               5.3677780000        8.0323160000        0.8555450000    0   0   0
Zn               2.5690728703        1.9704653167        2.9318534555
Zn               1.3307484949        7.0501124595        2.9312619163
Zn              -1.4311809118        0.9945618071        5.0749751103
Zn              -2.6706547474        6.0747482087        5.0655235388
H              -10.3107096827        1.7659637455       15.2673588661
C               -9.3362065111        1.4763932100       14.8442663068
C               -9.1231973902        0.2890848287       11.2082367980
C               -9.6719491797        2.6244557303       12.6079964476
C               -9.4294170845        1.4579058418       10.4862575067
C               -9.3672600052        1.4646170188       13.3372679439
C               -9.7049959109        2.6310544391       11.2178972950
C               -9.0951632039        0.3039547361       12.6016089019
N               -9.4597776310        1.4612196801        9.1095566164
H               -8.9044821505       -0.6358263198       10.6698685627
H               -9.8888255885        3.5512086376       13.1445018320
H               -9.0813240071        0.4865794246       15.2458315496
H               -9.6694891905        2.3033889583        8.5910671328
H               -9.2534061161        0.6289673081        8.5740189566
H               -9.9456249115        3.5527928602       10.6835784174
H               -8.8526458286       -0.6184168673       13.1342521172
H               -8.5935908655        2.1925848003       15.2292367000
End final coordinates

     Writing all to output data dir ./tmp/Zn101_3layer_ptoluidine_relax.save/ :
     XML data file, charge density, pseudopotentials, collected wavefunctions

     General routines

     Parallel routines

     PAW routines

   This run was terminated on:  16:21:43  14Apr2025

   JOB DONE.
Note: The following floating-point exceptions are signalling: IEEE_DENORMAL
Note: The following floating-point exceptions are signalling: IEEE_DENORMAL
Note: The following floating-point exceptions are signalling: IEEE_DENORMAL
Note: The following floating-point exceptions are signalling: IEEE_DENORMAL
Note: The following floating-point exceptions are signalling: IEEE_DENORMAL
Note: The following floating-point exceptions are signalling: IEEE_DENORMAL
Note: The following floating-point exceptions are signalling: IEEE_DENORMAL
Note: The following floating-point exceptions are signalling: IEEE_DENORMAL
Note: The following floating-point exceptions are signalling: IEEE_DENORMAL
Note: The following floating-point exceptions are signalling: IEEE_DENORMAL
Note: The following floating-point exceptions are signalling: IEEE_DENORMAL
Note: The following floating-point exceptions are signalling: IEEE_DENORMAL