     Program PWSCF v.7.3.1 starts on 12Apr2025 at  1:59:49

     Waiting for input...
     Reading input from standard input
Warning: card &CELL ignored
Warning: card   CELL_DOFREE = 'ALL' ignored
Warning: card / ignored

     Current dimensions of program PWSCF are:
     Max number of different atomic species (ntypx) = 10
     Max number of k-points (npk) =  40000
     Max angular momentum in pseudopotentials (lmaxx) =  4
     file C.pbe-n-kjpaw_psl.1.0.0.UPF: wavefunction(s)  2S 2P renormalized

     R & G space division:  proc/nbgrp/npool/nimage =      33
     Subspace diagonalization in iterative solution of the eigenvalue problem:
     one sub-group per band group will be used

     Using Slab Decomposition

     bravais-lattice index     =            0
     lattice parameter (alat)  =      19.7617  a.u.
     unit-cell volume          =   15176.5939 (a.u.)^3
     number of atoms/cell      =           65
     number of atomic types    =            4
     number of electrons       =      1002.00
     number of Kohn-Sham states=          601
     kinetic-energy cutoff     =      40.0000  Ry
     charge density cutoff     =     280.0000  Ry
     scf convergence threshold =      1.0E-06
     mixing beta               =       0.4000
     number of iterations used =            8  plain     mixing
     energy convergence thresh.=      5.0E-05
     force convergence thresh. =      1.0E-03
     Exchange-correlation= PBE
                           (   1   4   3   4   0   0   0)
     nstep                     =          300

     celldm(1)=  19.761696  celldm(2)=   0.000000  celldm(3)=   0.000000
     celldm(4)=   0.000000  celldm(5)=   0.000000  celldm(6)=   0.000000

     crystal axes: (cart. coord. in units of alat)
               a(1) = (   1.000000   0.000000   0.000000 )
               a(2) = (  -0.500000   0.866025   0.000000 )
               a(3) = (   0.000000   0.000000   2.270759 )

     reciprocal axes: (cart. coord. in units 2 pi/alat)
               b(1) = (  1.000000  0.577350 -0.000000 )
               b(2) = (  0.000000  1.154701  0.000000 )
               b(3) = (  0.000000 -0.000000  0.440381 )

     PseudoPot. # 1 for Zn read from file:
     /home/ys/qepseudo/SSSP_1.3.0_PBE_efficiency/Zn_pbe_v1.uspp.F.UPF
     MD5 check sum: df62231357ef9e81f77b2b3087fa5675
     Pseudo is Ultrasoft, Zval = 20.0
     Generated by new atomic code, or converted to UPF format
     Using radial grid of  943 points,  6 beta functions with:
                l(1) =   0
                l(2) =   0
                l(3) =   1
                l(4) =   1
                l(5) =   2
                l(6) =   2
     Q(r) pseudized with  8 coefficients,  rinner =    1.100   1.100   1.100
                                                       1.100   1.100

     PseudoPot. # 2 for N  read from file:
     /home/ys/qepseudo/SSSP_1.3.0_PBE_efficiency/N.pbe-n-radius_5.UPF
     MD5 check sum: 16739722b17309cd8fe442a2ace49922
     Pseudo is Ultrasoft + core correction, Zval =  5.0
     Generated using "atomic" code by A. Dal Corso  v.5.1
     Using radial grid of 1085 points,  4 beta functions with:
                l(1) =   0
                l(2) =   0
                l(3) =   1
                l(4) =   1
     Q(r) pseudized with 0 coefficients

     PseudoPot. # 3 for C  read from file:
     /home/ys/qepseudo/SSSP_1.3.0_PBE_efficiency/C.pbe-n-kjpaw_psl.1.0.0.UPF
     MD5 check sum: 5d2aebdfa2cae82b50a7e79e9516da0f
     Pseudo is Projector augmented-wave + core cor, Zval =  4.0
     Generated using "atomic" code by A. Dal Corso  v.5.1
     Shape of augmentation charge: PSQ
     Using radial grid of 1073 points,  4 beta functions with:
                l(1) =   0
                l(2) =   0
                l(3) =   1
                l(4) =   1
     Q(r) pseudized with 0 coefficients

     PseudoPot. # 4 for H  read from file:
     /home/ys/qepseudo/SSSP_1.3.0_PBE_efficiency/H.pbe-rrkjus_psl.1.0.0.UPF
     MD5 check sum: f52b6d4d1c606e5624b1dc7b2218f220
     Pseudo is Ultrasoft, Zval =  1.0
     Generated using "atomic" code by A. Dal Corso  v.5.1
     Using radial grid of  929 points,  2 beta functions with:
                l(1) =   0
                l(2) =   0
     Q(r) pseudized with 0 coefficients

     atomic species   valence    mass     pseudopotential
     Zn               20.00    65.38000     Zn( 1.00)
     N                 5.00    14.00674     N ( 1.00)
     C                 4.00    12.01070     C ( 1.00)
     H                 1.00     1.00794     H ( 1.00)

     No symmetry found

                                    s                        frac. trans.

      isym =  1     identity

 cryst.   s( 1) = (     1          0          0      )
                  (     0          1          0      )
                  (     0          0          1      )

 cart.    s( 1) = (  1.0000000  0.0000000  0.0000000 )
                  (  0.0000000  1.0000000  0.0000000 )
                  (  0.0000000  0.0000000  1.0000000 )

   Cartesian axes

     site n.     atom                  positions (alat units)
         1        Zn     tau(   1) = (   0.0000000   0.1443375   0.1164998  )
         2        Zn     tau(   2) = (   0.5000000   0.1443375   0.1164998  )
         3        Zn     tau(   3) = (  -0.0001247   0.1443602   0.5698142  )
         4        Zn     tau(   4) = (   0.4997731   0.1447344   0.5714014  )
         5        Zn     tau(   5) = (  -0.1250000   0.3608439   0.1164998  )
         6        Zn     tau(   6) = (   0.3750000   0.3608439   0.1164998  )
         7        Zn     tau(   7) = (  -0.1243530   0.3627783   0.5674518  )
         8        Zn     tau(   8) = (   0.3742068   0.3612985   0.5703291  )
         9        Zn     tau(   9) = (  -0.2500000   0.5773502   0.1164998  )
        10        Zn     tau(  10) = (   0.2500000   0.5773502   0.1164998  )
        11        Zn     tau(  11) = (  -0.2488717   0.5772906   0.5680268  )
        12        Zn     tau(  12) = (   0.2464242   0.5772451   0.5638059  )
        13        Zn     tau(  13) = (  -0.3750000   0.7938567   0.1164998  )
        14        Zn     tau(  14) = (   0.1250000   0.7938567   0.1164998  )
        15        Zn     tau(  15) = (  -0.3755974   0.7938045   0.5712712  )
        16        Zn     tau(  16) = (   0.1234213   0.7922226   0.5661334  )
        17        Zn     tau(  17) = (   0.2500000   0.1443375   0.1164998  )
        18        Zn     tau(  18) = (   0.7500000   0.1443375   0.1164998  )
        19        Zn     tau(  19) = (   0.2496267   0.1448266   0.5689536  )
        20        Zn     tau(  20) = (   0.7500063   0.1442554   0.5704697  )
        21        Zn     tau(  21) = (   0.1250000   0.3608439   0.1164998  )
        22        Zn     tau(  22) = (   0.6250000   0.3608439   0.1164998  )
        23        Zn     tau(  23) = (   0.1233666   0.3635494   0.5664985  )
        24        Zn     tau(  24) = (   0.6244117   0.3607458   0.5714120  )
        25        Zn     tau(  25) = (   0.0000000   0.5773502   0.1164998  )
        26        Zn     tau(  26) = (   0.5000000   0.5773502   0.1164998  )
        27        Zn     tau(  27) = (  -0.0012149   0.5780044   0.6192520  )
        28        Zn     tau(  28) = (   0.4990189   0.5771658   0.5687370  )
        29        Zn     tau(  29) = (  -0.1250000   0.7938567   0.1164998  )
        30        Zn     tau(  30) = (   0.3750000   0.7938567   0.1164998  )
        31        Zn     tau(  31) = (  -0.1245693   0.7925028   0.5676906  )
        32        Zn     tau(  32) = (   0.3747233   0.7936500   0.5691973  )
        33        Zn     tau(  33) = (   0.1247180   0.0715558   0.3418945  )
        34        Zn     tau(  34) = (   0.6246253   0.0723303   0.3435079  )
        35        Zn     tau(  35) = (  -0.0003648   0.2890862   0.3439340  )
        36        Zn     tau(  36) = (   0.4999808   0.2885071   0.3413763  )
        37        Zn     tau(  37) = (  -0.1243366   0.5057517   0.3445335  )
        38        Zn     tau(  38) = (   0.3749810   0.5048151   0.3420206  )
        39        Zn     tau(  39) = (  -0.2498281   0.7215613   0.3443827  )
        40        Zn     tau(  40) = (   0.2493369   0.7217522   0.3431647  )
        41        Zn     tau(  41) = (   0.3750704   0.0721993   0.3441547  )
        42        Zn     tau(  42) = (   0.8754222   0.0719969   0.3421325  )
        43        Zn     tau(  43) = (   0.2500197   0.2887334   0.3426998  )
        44        Zn     tau(  44) = (   0.7498021   0.2888291   0.3438649  )
        45        Zn     tau(  45) = (   0.1240110   0.5054067   0.3388775  )
        46        Zn     tau(  46) = (   0.6250875   0.5048385   0.3440914  )
        47        Zn     tau(  47) = (  -0.0003522   0.7207343   0.3437448  )
        48        Zn     tau(  48) = (   0.5003693   0.7221973   0.3413707  )
        49        C      tau(  49) = (   0.4810335   0.3266213   0.9591155  )
        50        C      tau(  50) = (   0.2355710   0.5878315   0.8881585  )
        51        C      tau(  51) = (   0.2416081   0.3243231   0.9267954  )
        52        C      tau(  52) = (   0.1221052   0.5173476   0.8815266  )
        53        C      tau(  53) = (   0.3563301   0.3935972   0.9339370  )
        54        C      tau(  54) = (   0.1259462   0.3848580   0.9004659  )
        55        C      tau(  55) = (   0.3509241   0.5260709   0.9146111  )
        56        N      tau(  56) = (   0.0069283   0.5768314   0.8403826  )
        57        H      tau(  57) = (   0.5030366   0.2584974   0.8819792  )
        58        H      tau(  58) = (   0.2340069   0.6906489   0.8704559  )
        59        H      tau(  59) = (   0.2423453   0.2208485   0.9418685  )
        60        H      tau(  60) = (   0.5606147   0.3946816   0.9644503  )
        61        H      tau(  61) = (  -0.0737562   0.5296145   0.8683495  )
        62        H      tau(  62) = (   0.0006451   0.6709923   0.8649606  )
        63        H      tau(  63) = (   0.0381641   0.3290911   0.8929746  )
        64        H      tau(  64) = (   0.4389091   0.5823824   0.9182712  )
        65        H      tau(  65) = (   0.4791862   0.2723052   1.0491464  )

     DFT-D3 Dispersion Correction (3-body terms):
       Reference C6 values for interpolation:

         atom   Coordination number   C6
         H          0.912             6.05
         H          0.000            15.18
         C          0.000            98.23
         C          0.987            86.49
         C          1.998            58.72
         C          2.999            51.56
         C          3.984            36.41
         N          0.000            50.54
         N          0.994            44.25
         N          2.014            39.35
         N          2.990            31.16
         Zn         0.000           681.04
         Zn         1.942           306.91

       Values used:

         atom   Coordination number  R0_AB[au]  C6      C8
         Zn         7.175            3.053    306.91  23930.67
         Zn         7.167            3.053    306.91  23930.67
         Zn         7.115            3.053    306.91  23930.67
         Zn         7.077            3.053    306.91  23930.67
[...]
     atom   23 type  1   force =    -0.00002555   -0.00000888   -0.00000341
     atom   24 type  1   force =     0.00002401   -0.00000293   -0.00002904
     atom   25 type  1   force =    -0.00000000    0.00000000   -0.00000000
     atom   26 type  1   force =     0.00000000   -0.00000000   -0.00000000
     atom   27 type  1   force =    -0.00003397    0.00000154    0.00002744
     atom   28 type  1   force =     0.00004100   -0.00000781   -0.00000095
     atom   29 type  1   force =    -0.00000000    0.00000000    0.00000000
     atom   30 type  1   force =     0.00000000    0.00000000   -0.00000000
     atom   31 type  1   force =    -0.00000782   -0.00000848   -0.00001430
     atom   32 type  1   force =     0.00001437    0.00002331    0.00000198
     atom   33 type  1   force =     0.00001059   -0.00000162   -0.00001302
     atom   34 type  1   force =    -0.00001395    0.00003833   -0.00000811
     atom   35 type  1   force =    -0.00001610   -0.00002496    0.00000448
     atom   36 type  1   force =     0.00001285   -0.00001933   -0.00002248
     atom   37 type  1   force =    -0.00002675   -0.00000623    0.00002710
     atom   38 type  1   force =     0.00003113   -0.00002868   -0.00001773
     atom   39 type  1   force =    -0.00000138    0.00001192    0.00001080
     atom   40 type  1   force =     0.00000447    0.00002904   -0.00000202
     atom   41 type  1   force =    -0.00000412    0.00000736   -0.00000984
     atom   42 type  1   force =     0.00001199    0.00003007   -0.00000963
     atom   43 type  1   force =     0.00001108   -0.00004286   -0.00001604
     atom   44 type  1   force =    -0.00000825   -0.00000188   -0.00000540
     atom   45 type  1   force =    -0.00002857   -0.00001852    0.00001094
     atom   46 type  1   force =     0.00001928   -0.00001633   -0.00000364
     atom   47 type  1   force =    -0.00004096    0.00001965    0.00002351
     atom   48 type  1   force =     0.00003885    0.00001885   -0.00001108
     atom   49 type  3   force =    -0.00000064   -0.00000008   -0.00000181
     atom   50 type  3   force =    -0.00000081   -0.00000151   -0.00000024
     atom   51 type  3   force =     0.00000361    0.00000040   -0.00000065
     atom   52 type  3   force =     0.00000005    0.00000076   -0.00000107
     atom   53 type  3   force =     0.00000143   -0.00000118    0.00000351
     atom   54 type  3   force =     0.00000027    0.00000101   -0.00000291
     atom   55 type  3   force =     0.00000083   -0.00000087    0.00000387
     atom   56 type  2   force =    -0.00000229    0.00000155    0.00000845
     atom   57 type  4   force =     0.00000040   -0.00000038   -0.00000045
     atom   58 type  4   force =    -0.00000032   -0.00000044    0.00000011
     atom   59 type  4   force =     0.00000056   -0.00000055   -0.00000044
     atom   60 type  4   force =     0.00000049    0.00000020   -0.00000087
     atom   61 type  4   force =    -0.00000014    0.00000088    0.00000030
     atom   62 type  4   force =    -0.00000086   -0.00000058    0.00000045
     atom   63 type  4   force =    -0.00000034   -0.00000000   -0.00000069
     atom   64 type  4   force =     0.00000039   -0.00000022    0.00000065
     atom   65 type  4   force =    -0.00000003   -0.00000034   -0.00000066

     DFT-D3 dispersion contribution to forces:
     atom    1 type  1   force =    -0.00000038    0.00002092    0.00268125
     atom    2 type  1   force =     0.00000816   -0.00000017    0.00267060
     atom    3 type  1   force =     0.00029746    0.00051639   -0.00167528
     atom    4 type  1   force =    -0.00024267    0.00032951   -0.00129337
     atom    5 type  1   force =    -0.00001625   -0.00003272    0.00261597
     atom    6 type  1   force =     0.00000832    0.00000512    0.00270516
     atom    7 type  1   force =     0.00064910    0.00049118   -0.00150567
     atom    8 type  1   force =    -0.00031713    0.00025790   -0.00050970
     atom    9 type  1   force =    -0.00000807   -0.00001804    0.00262399
     atom   10 type  1   force =     0.00000725   -0.00001243    0.00275333
     atom   11 type  1   force =     0.00046577   -0.00014556   -0.00174975
     atom   12 type  1   force =    -0.00022480   -0.00026274   -0.00152726
     atom   13 type  1   force =    -0.00000596   -0.00000572    0.00270619
     atom   14 type  1   force =     0.00002598    0.00002504    0.00266111
     atom   15 type  1   force =    -0.00004171   -0.00007651   -0.00196385
     atom   16 type  1   force =    -0.00004100   -0.00082849   -0.00145181
     atom   17 type  1   force =    -0.00000789    0.00000918    0.00268235
     atom   18 type  1   force =     0.00000806   -0.00001090    0.00263540
     atom   19 type  1   force =     0.00009753    0.00071792   -0.00123441
     atom   20 type  1   force =    -0.00014878    0.00002145   -0.00191522
     atom   21 type  1   force =     0.00001565    0.00000985    0.00272998
     atom   22 type  1   force =     0.00000331    0.00000193    0.00265659
     atom   23 type  1   force =     0.00015720    0.00044036   -0.00135042
     atom   24 type  1   force =    -0.00047010    0.00010351   -0.00117157
     atom   25 type  1   force =     0.00003051   -0.00000942    0.00271655
     atom   26 type  1   force =    -0.00001893    0.00000649    0.00270714
     atom   27 type  1   force =     0.00038454   -0.00022572   -0.00065536
     atom   28 type  1   force =    -0.00060261   -0.00039153   -0.00107814
     atom   29 type  1   force =     0.00001591    0.00000707    0.00264412
     atom   30 type  1   force =    -0.00001818   -0.00001894    0.00271125
     atom   31 type  1   force =     0.00041502   -0.00038317   -0.00181492
     atom   32 type  1   force =    -0.00033209   -0.00060862   -0.00155537
     atom   33 type  1   force =    -0.00003547   -0.00002675   -0.00008106
     atom   34 type  1   force =     0.00001824    0.00003531    0.00007403
     atom   35 type  1   force =    -0.00000310    0.00005296    0.00029151
     atom   36 type  1   force =    -0.00000497   -0.00000292    0.00001449
     atom   37 type  1   force =    -0.00007201   -0.00003927   -0.00015748
     atom   38 type  1   force =     0.00003088    0.00000602    0.00021448
     atom   39 type  1   force =     0.00003974   -0.00001667    0.00021279
     atom   40 type  1   force =    -0.00004342   -0.00002608    0.00034246
     atom   41 type  1   force =    -0.00006067    0.00003210    0.00008124
     atom   42 type  1   force =     0.00007320   -0.00003532   -0.00003084
     atom   43 type  1   force =     0.00000913   -0.00004422    0.00018185
     atom   44 type  1   force =    -0.00001877   -0.00003666    0.00008243
     atom   45 type  1   force =     0.00007728   -0.00004801   -0.00014199
     atom   46 type  1   force =    -0.00004624    0.00002743    0.00010007
     atom   47 type  1   force =    -0.00001836    0.00008649   -0.00015938
     atom   48 type  1   force =     0.00001467    0.00005145   -0.00007461
     atom   49 type  3   force =     0.00013715   -0.00007516   -0.00113648
     atom   50 type  3   force =     0.00026814    0.00038121   -0.00112528
     atom   51 type  3   force =     0.00001238   -0.00044597   -0.00163776
     atom   52 type  3   force =    -0.00008843    0.00003340   -0.00088142
     atom   53 type  3   force =     0.00004528   -0.00003280   -0.00146712
     atom   54 type  3   force =    -0.00012089   -0.00040081   -0.00114456
     atom   55 type  3   force =     0.00026288    0.00028822   -0.00171850
     atom   56 type  2   force =    -0.00016663    0.00008617   -0.00167627
     atom   57 type  4   force =    -0.00010117    0.00000420   -0.00170816
     atom   58 type  4   force =    -0.00003463    0.00006815   -0.00163663
     atom   59 type  4   force =     0.00007032   -0.00005585   -0.00101975
     atom   60 type  4   force =     0.00019619   -0.00003840   -0.00075378
     atom   61 type  4   force =    -0.00021565    0.00003242   -0.00131651
     atom   62 type  4   force =    -0.00013332    0.00015665   -0.00127957
     atom   63 type  4   force =    -0.00008921   -0.00002252   -0.00151364
     atom   64 type  4   force =     0.00002647    0.00002532   -0.00120033
     atom   65 type  4   force =    -0.00012221    0.00004673   -0.00018314

     Total force =     0.003342     Total SCF correction =     0.000190

     DFT-D3 dispersion Force =     0.013606

     Computing stress (Cartesian axis) and pressure

     negative rho (up, down):  4.878E-03 0.000E+00
          total   stress  (Ry/bohr**3)                   (kbar)     P=       -9.19
  -0.00009162  -0.00000047   0.00000099          -13.48       -0.07        0.15
  -0.00000047  -0.00009205  -0.00000053           -0.07      -13.54       -0.08
   0.00000099  -0.00000053  -0.00000372            0.15       -0.08       -0.55

     kinetic stress (kbar)  12906.89     -2.33     -5.09
                               -2.33  12904.81      5.25
                               -5.09      5.25  13038.96

     local   stress (kbar)**********    476.75   -460.74
                              476.75**********    291.82
                             -460.74    291.821226943.79

     nonloc. stress (kbar)  -1205.74     -0.18      0.87
                               -0.18  -1206.05     -0.70
                                0.87     -0.70  -1254.59

     hartree stress (kbar) 634216.73   -215.03    189.09
                             -215.03 633889.32   -115.68
                              189.09   -115.68-577504.71

     exc-cor stress (kbar)  -6319.99     -0.00      0.44
                               -0.00  -6320.04     -0.38
                                0.44     -0.38  -6331.70

     corecor stress (kbar)    -80.02     -0.07     -0.13
                               -0.07    -80.11      0.12
                               -0.13      0.12    -79.09

     ewald   stress (kbar) 575270.48   -259.20    275.69
                             -259.20 574872.73   -180.51
                              275.69   -180.51-654807.95

     hubbard stress (kbar)      0.00      0.00      0.00
                                0.00      0.00      0.00
                                0.00      0.00      0.00

     DFT-D   stress (kbar)    -10.64      0.00      0.00
                                0.00    -10.63     -0.00
                                0.00     -0.00     -5.25

     XDM     stress (kbar)      0.00      0.00      0.00
                                0.00      0.00      0.00
                                0.00      0.00      0.00

     dft-nl  stress (kbar)      0.00      0.00      0.00
                                0.00      0.00      0.00
                                0.00      0.00      0.00

     TS-vdW  stress (kbar)      0.00      0.00      0.00
                                0.00      0.00      0.00
                                0.00      0.00      0.00

     MDB     stress (kbar)      0.00      0.00      0.00
                                0.00      0.00      0.00
                                0.00      0.00      0.00

     3D-RISM stress (kbar)      0.00      0.00      0.00
                                0.00      0.00      0.00
                                0.00      0.00      0.00

     Energy error            =      2.8E-05 Ry
     Gradient error          =      9.5E-04 Ry/Bohr

     bfgs converged in  29 scf cycles and  28 bfgs steps
     (criteria: energy <  5.0E-05 Ry, force <  1.0E-03 Ry/Bohr)

     End of BFGS Geometry Optimization

     Final energy             =  -22315.0241594385 Ry

     File ./tmp/Zn002_3layer_ptoluidine_relax.bfgs deleted, as requested
Begin final coordinates

ATOMIC_POSITIONS (angstrom)
Zn               0.0000000000        1.5094010000        1.2182900000    0   0   0
Zn               5.2287200000        1.5094010000        1.2182900000    0   0   0
Zn              -0.0013487635        1.5144602551        6.1774676192
Zn               5.2235527787        1.5117091820        6.1900743242
Zn              -1.3071800000        3.7735030000        1.2182900000    0   0   0
Zn               3.9215400000        3.7735030000        1.2182900000    0   0   0
Zn              -1.3052179893        3.7832772405        6.1195666864
Zn               3.9151167043        3.7768913620        6.1674208163
Zn              -2.6143600000        6.0376050000        1.2182900000    0   0   0
Zn               2.6143600000        6.0376050000        1.2182900000    0   0   0
Zn              -2.6158564879        6.0386027060        6.1304330330
Zn               2.5958549170        6.0376709369        6.0888092039
Zn              -3.9215400000        8.3017080000        1.2182900000    0   0   0
Zn               1.3071800000        8.3017080000        1.2182900000    0   0   0
Zn              -3.9286091277        8.3042005517        6.1969127741
Zn               1.2977206214        8.2954516846        6.0991049954
Zn               2.6143600000        1.5094010000        1.2182900000    0   0   0
Zn               7.8430800000        1.5094010000        1.2182900000    0   0   0
Zn               2.6100249797        1.5147990846        6.1715152022
Zn               7.8395931857        1.5109292223        6.1910599861
Zn               1.3071800000        3.7735030000        1.2182900000    0   0   0
Zn               6.5359000000        3.7735030000        1.2182900000    0   0   0
Zn               1.2986025300        3.7883525729        6.1100620855
Zn               6.5307459008        3.7757359466        6.1922331373
Zn               0.0000000000        6.0376050000        1.2182900000    0   0   0
Zn               5.2287200000        6.0376050000        1.2182900000    0   0   0
Zn              -0.0130983142        6.0436515240        6.5018291635
Zn               5.2214663678        6.0379187880        6.1607312174
Zn              -1.3071800000        8.3017080000        1.2182900000    0   0   0
Zn               3.9215400000        8.3017080000        1.2182900000    0   0   0
Zn              -1.3099421088        8.3006528619        6.1240473092
Zn               3.9169194760        8.3013571736        6.1611873527
Zn               1.3033942071        0.7535134476        3.6911977160
Zn               6.5304316001        0.7580450696        3.7003512754
Zn              -0.0053310366        3.0204820305        3.6900559779
Zn               5.2266856289        3.0196005392        3.6907644577
Zn              -1.3054391075        5.2884170575        3.6954959178
Zn               3.9187257369        5.2824331979        3.6821319758
Zn              -2.6196769504        7.5490378390        3.7017459131
Zn               2.6102152594        7.5502141098        3.6812129478
Zn               3.9211014358        0.7562111844        3.7030124484
Zn               9.1491781596        0.7563757271        3.6987987764
Zn               2.6113718157        3.0211274128        3.6899501708
Zn               7.8385813359        3.0222840439        3.7068226353
Zn               1.2953254661        5.2875227900        3.6493611808
Zn               6.5355080170        5.2811348898        3.7016652875
Zn              -0.0059206415        7.5416090932        3.6867087384
Zn               5.2286991710        7.5504858451        3.6819213051
C                5.0489982016        3.4051268611        9.9924907810
C                2.4627384133        6.1457121682        9.3274811489
C                2.5386032127        3.3843702379        9.6673088884
C                1.2745296287        5.4088270279        9.2569111669
C                3.7397932889        4.1063473195        9.7467424379
C                1.3211383397        4.0172636544        9.4223354726
C                3.6736132957        5.4945720807        9.5699049367
N                0.0715442106        6.0363378780        8.8537109450
H                5.2789040631        2.7027640108        9.1742966615
H                2.4461579768        7.2250773585        9.1596162582
H                2.5540196215        2.2984275549        9.7796916848
H                5.8783987063        4.1219108992       10.0543605461
H               -0.7781116002        5.5477095131        9.1303168690
H                0.0087199741        7.0254658813        9.0868961999
H                0.4056881637        3.4286799098        9.3329411883
H                4.5920756327        6.0838798589        9.5973415635
H                5.0247031874        2.8279742556       10.9293282085
End final coordinates

     Writing all to output data dir ./tmp/Zn002_3layer_ptoluidine_relax.save/ :
     XML data file, charge density, pseudopotentials, collected wavefunctions

     General routines

     Parallel routines

     PAW routines

   This run was terminated on:  21:42: 9  12Apr2025

   JOB DONE.