     Program PWSCF v.7.3.1 starts on  5Apr2025 at  3:19:44

     Waiting for input...
     Reading input from standard input
Warning: card &CELL ignored
Warning: card   CELL_DOFREE = 'ALL' ignored
Warning: card / ignored

     Current dimensions of program PWSCF are:
     Max number of different atomic species (ntypx) = 10
     Max number of k-points (npk) =  40000
     Max angular momentum in pseudopotentials (lmaxx) =  4

     File ./tmp/05_Zn100_ABN_topsite_tilted_edgeon.update deleted, as requested

     File ./tmp/05_Zn100_ABN_topsite_tilted_edgeon.bfgs deleted, as requested
     file C.pbe-n-kjpaw_psl.1.0.0.UPF: wavefunction(s)  2S 2P renormalized

     R & G space division:  proc/nbgrp/npool/nimage =      33
     Subspace diagonalization in iterative solution of the eigenvalue problem:
     one sub-group per band group will be used

     Using Slab Decomposition

     bravais-lattice index     =            0
     lattice parameter (alat)  =      18.4179  a.u.
     unit-cell volume          =   15858.2170 (a.u.)^3
     number of atoms/cell      =           63
     number of atomic types    =            4
     number of electrons       =      1004.00
     number of Kohn-Sham states=          602
     kinetic-energy cutoff     =      40.0000  Ry
     charge density cutoff     =     280.0000  Ry
     scf convergence threshold =      1.0E-06
     mixing beta               =       0.4000
     number of iterations used =            8  plain     mixing
     energy convergence thresh.=      1.0E-05
     force convergence thresh. =      5.0E-04
     Exchange-correlation= PBE
                           (   1   4   3   4   0   0   0)
     nstep                     =          500

     celldm(1)=  18.417879  celldm(2)=   0.000000  celldm(3)=   0.000000
     celldm(4)=   0.000000  celldm(5)=   0.000000  celldm(6)=   0.000000

     crystal axes: (cart. coord. in units of alat)
               a(1) = (   1.000000   0.000000   0.000000 )
               a(2) = (   0.000000   1.072963   0.000000 )
               a(3) = (   0.000000  -1.365810   2.365652 )

     reciprocal axes: (cart. coord. in units 2 pi/alat)
               b(1) = (  1.000000  0.000000 -0.000000 )
               b(2) = ( -0.000000  0.931999  0.538090 )
               b(3) = (  0.000000  0.000000  0.422716 )

     PseudoPot. # 1 for Zn read from file:
     /home/ys/qepseudo/SSSP_1.3.0_PBE_efficiency/Zn_pbe_v1.uspp.F.UPF
     MD5 check sum: df62231357ef9e81f77b2b3087fa5675
     Pseudo is Ultrasoft, Zval = 20.0
     Generated by new atomic code, or converted to UPF format
     Using radial grid of  943 points,  6 beta functions with:
                l(1) =   0
                l(2) =   0
                l(3) =   1
                l(4) =   1
                l(5) =   2
                l(6) =   2
     Q(r) pseudized with  8 coefficients,  rinner =    1.100   1.100   1.100
                                                       1.100   1.100

     PseudoPot. # 2 for N  read from file:
     /home/ys/qepseudo/SSSP_1.3.0_PBE_efficiency/N.pbe-n-radius_5.UPF
     MD5 check sum: 16739722b17309cd8fe442a2ace49922
     Pseudo is Ultrasoft + core correction, Zval =  5.0
     Generated using "atomic" code by A. Dal Corso  v.5.1
     Using radial grid of 1085 points,  4 beta functions with:
                l(1) =   0
                l(2) =   0
                l(3) =   1
                l(4) =   1
     Q(r) pseudized with 0 coefficients

     PseudoPot. # 3 for C  read from file:
     /home/ys/qepseudo/SSSP_1.3.0_PBE_efficiency/C.pbe-n-kjpaw_psl.1.0.0.UPF
     MD5 check sum: 5d2aebdfa2cae82b50a7e79e9516da0f
     Pseudo is Projector augmented-wave + core cor, Zval =  4.0
     Generated using "atomic" code by A. Dal Corso  v.5.1
     Shape of augmentation charge: PSQ
     Using radial grid of 1073 points,  4 beta functions with:
                l(1) =   0
                l(2) =   0
                l(3) =   1
                l(4) =   1
     Q(r) pseudized with 0 coefficients

     PseudoPot. # 4 for H  read from file:
     /home/ys/qepseudo/SSSP_1.3.0_PBE_efficiency/H.pbe-rrkjus_psl.1.0.0.UPF
     MD5 check sum: f52b6d4d1c606e5624b1dc7b2218f220
     Pseudo is Ultrasoft, Zval =  1.0
     Generated using "atomic" code by A. Dal Corso  v.5.1
     Using radial grid of  929 points,  2 beta functions with:
                l(1) =   0
                l(2) =   0
     Q(r) pseudized with 0 coefficients

     atomic species   valence    mass     pseudopotential
     Zn               20.00    65.38000     Zn( 1.00)
     N                 5.00    14.00674     N ( 1.00)
     C                 4.00    12.01070     C ( 1.00)
     H                 1.00     1.00794     H ( 1.00)

     No symmetry found

                                    s                        frac. trans.

      isym =  1     identity

 cryst.   s( 1) = (     1          0          0      )
                  (     0          1          0      )
                  (     0          0          1      )

 cart.    s( 1) = (  1.0000000  0.0000000  0.0000000 )
                  (  0.0000000  1.0000000 -0.0000000 )
                  (  0.0000000  0.0000000  1.0000000 )

   Cartesian axes

     site n.     atom                  positions (alat units)
         1        Zn     tau(   1) = (   0.1250000   0.1341203   0.0774344  )
         2        Zn     tau(   2) = (   0.1250000   0.6706017   0.0774344  )
         3        Zn     tau(   3) = (   0.0519195  -0.0002338   0.3744589  )
         4        Zn     tau(   4) = (   0.0520243   0.5367133   0.3740962  )
         5        Zn     tau(   5) = (   0.1249415  -0.1338755   0.6249980  )
         6        Zn     tau(   6) = (   0.1245593   0.4023898   0.6245313  )
         7        Zn     tau(   7) = (   0.1250000   0.4023610   0.0774344  )
         8        Zn     tau(   8) = (   0.1250000   0.9388424   0.0774344  )
         9        Zn     tau(   9) = (   0.0518258   0.2684908   0.3741688  )
        10        Zn     tau(  10) = (   0.0520030   0.8046347   0.3740517  )
        11        Zn     tau(  11) = (   0.1246072   0.1340872   0.6237200  )
        12        Zn     tau(  12) = (   0.1246382   0.6706408   0.6241852  )
        13        Zn     tau(  13) = (   0.6250000   0.1341203   0.0774344  )
        14        Zn     tau(  14) = (   0.6250000   0.6706017   0.0774344  )
        15        Zn     tau(  15) = (   0.5529269  -0.0001541   0.3731260  )
        16        Zn     tau(  16) = (   0.5525551   0.5365344   0.3737323  )
        17        Zn     tau(  17) = (   0.6249314  -0.1341006   0.6241685  )
        18        Zn     tau(  18) = (   0.6247357   0.4022348   0.6237103  )
        19        Zn     tau(  19) = (   0.6250000   0.4023610   0.0774344  )
        20        Zn     tau(  20) = (   0.6250000   0.9388424   0.0774344  )
        21        Zn     tau(  21) = (   0.5531189   0.2684031   0.3725390  )
        22        Zn     tau(  22) = (   0.5526809   0.8046681   0.3735313  )
        23        Zn     tau(  23) = (   0.6248263   0.1340707   0.6234557  )
        24        Zn     tau(  24) = (   0.6249226   0.6705832   0.6235952  )
        25        Zn     tau(  25) = (   0.3750000   0.0000000   0.1548688  )
        26        Zn     tau(  26) = (   0.3750000   0.5364814   0.1548688  )
        27        Zn     tau(  27) = (   0.2930605  -0.1344297   0.3780295  )
        28        Zn     tau(  28) = (   0.2928102   0.4030071   0.3778640  )
        29        Zn     tau(  29) = (   0.3752770  -0.2683230   0.6153952  )
        30        Zn     tau(  30) = (   0.3757902   0.2690660   0.6102848  )
        31        Zn     tau(  31) = (   0.3750000   0.2682407   0.1548688  )
        32        Zn     tau(  32) = (   0.3750000   0.8047221   0.1548688  )
        33        Zn     tau(  33) = (   0.2925469   0.1339740   0.3775535  )
        34        Zn     tau(  34) = (   0.2935201   0.6706653   0.3781822  )
        35        Zn     tau(  35) = (   0.3762850  -0.0003967   0.6123911  )
        36        Zn     tau(  36) = (   0.3752867   0.5368431   0.6151961  )
        37        Zn     tau(  37) = (   0.8750000   0.0000000   0.1548688  )
        38        Zn     tau(  38) = (   0.8750000   0.5364814   0.1548688  )
        39        Zn     tau(  39) = (   0.7942704  -0.1342288   0.3790659  )
        40        Zn     tau(  40) = (   0.7940243   0.4024853   0.3791211  )
        41        Zn     tau(  41) = (   0.8755457  -0.2682130   0.6164134  )
        42        Zn     tau(  42) = (   0.8753783   0.2683168   0.6161383  )
        43        Zn     tau(  43) = (   0.8750000   0.2682407   0.1548688  )
        44        Zn     tau(  44) = (   0.8750000   0.8047221   0.1548688  )
        45        Zn     tau(  45) = (   0.7940528   0.1341778   0.3788762  )
        46        Zn     tau(  46) = (   0.7942657   0.6706391   0.3789633  )
        47        Zn     tau(  47) = (   0.8752011  -0.0000757   0.6161873  )
        48        Zn     tau(  48) = (   0.8753108   0.5364909   0.6163280  )
        49        C      tau(  49) = (   0.1121964   0.1107806   1.4597482  )
        50        C      tau(  50) = (   0.1824817   0.1201210   1.3319865  )
        51        C      tau(  51) = (   0.3151329   0.1771897   1.3249037  )
        52        C      tau(  52) = (   0.1201469   0.0736207   1.2100788  )
        53        C      tau(  53) = (   0.3828090   0.1878702   1.2002923  )
        54        C      tau(  54) = (   0.1876748   0.0844327   1.0854018  )
        55        C      tau(  55) = (   0.3203217   0.1422235   1.0778831  )
        56        N      tau(  56) = (   0.0542078   0.1040903   1.5644081  )
        57        N      tau(  57) = (   0.3886449   0.1490500   0.9545150  )
        58        H      tau(  58) = (   0.3335456   0.1400317   0.8663398  )
        59        H      tau(  59) = (   0.4709892   0.2120488   0.9463487  )
        60        H      tau(  60) = (   0.0174735   0.0294852   1.2144645  )
        61        H      tau(  61) = (   0.3645822   0.2131420   1.4185475  )
        62        H      tau(  62) = (   0.1380210   0.0483896   0.9916295  )
        63        H      tau(  63) = (   0.4855411   0.2323756   1.1966823  )

     DFT-D3 Dispersion Correction (3-body terms):
       Reference C6 values for interpolation:

         atom   Coordination number   C6
         H          0.912             6.05
         H          0.000            15.18
         C          0.000            98.23
         C          0.987            86.49
         C          1.998            58.72
         C          2.999            51.56
         C          3.984            36.41
         N          0.000            50.54
         N          0.994            44.25
         N          2.014            39.35
         N          2.990            31.16
         Zn         0.000           681.04
         Zn         1.942           306.91

       Values used:

         atom   Coordination number  R0_AB[au]  C6      C8
         Zn         4.400            3.053    306.91  23930.67
         Zn         4.401            3.053    306.91  23930.67
         Zn         7.306            3.053    306.91  23930.67
         Zn         7.301            3.053    306.91  23930.67
[...]
     atom   18 type  1   force =    -0.00002362    0.00010505   -0.00009407
     atom   19 type  1   force =    -0.00000000    0.00000000    0.00000000
     atom   20 type  1   force =    -0.00000000   -0.00000000    0.00000000
     atom   21 type  1   force =    -0.00000426    0.00013455   -0.00000088
     atom   22 type  1   force =     0.00000322   -0.00013593    0.00000810
     atom   23 type  1   force =    -0.00002081    0.00005856   -0.00003985
     atom   24 type  1   force =    -0.00002290   -0.00005439   -0.00011162
     atom   25 type  1   force =     0.00000000   -0.00000000    0.00000000
     atom   26 type  1   force =     0.00000000    0.00000000    0.00000000
     atom   27 type  1   force =     0.00006247   -0.00011743   -0.00000050
     atom   28 type  1   force =     0.00006545    0.00011916    0.00000537
     atom   29 type  1   force =     0.00003784   -0.00011460   -0.00007785
     atom   30 type  1   force =     0.00004030    0.00011914   -0.00005607
     atom   31 type  1   force =     0.00000000    0.00000000    0.00000000
     atom   32 type  1   force =     0.00000000   -0.00000000    0.00000000
     atom   33 type  1   force =     0.00006072    0.00006849   -0.00000944
     atom   34 type  1   force =     0.00006666   -0.00006625    0.00001524
     atom   35 type  1   force =     0.00004238   -0.00003251   -0.00003158
     atom   36 type  1   force =     0.00003862    0.00003274   -0.00010228
     atom   37 type  1   force =    -0.00000000   -0.00000000    0.00000000
     atom   38 type  1   force =    -0.00000000    0.00000000    0.00000000
     atom   39 type  1   force =    -0.00006137   -0.00012823   -0.00000506
     atom   40 type  1   force =    -0.00005589    0.00012563    0.00000101
     atom   41 type  1   force =    -0.00004193   -0.00011220   -0.00006405
     atom   42 type  1   force =    -0.00004405    0.00011785   -0.00004728
     atom   43 type  1   force =    -0.00000000    0.00000000    0.00000000
     atom   44 type  1   force =    -0.00000000   -0.00000000    0.00000000
     atom   45 type  1   force =    -0.00006158    0.00006835   -0.00000775
     atom   46 type  1   force =    -0.00005657   -0.00006526    0.00000449
     atom   47 type  1   force =    -0.00004432   -0.00003662   -0.00002279
     atom   48 type  1   force =    -0.00004712    0.00003523   -0.00008988
     atom   49 type  3   force =     0.00000027   -0.00000453   -0.00000066
     atom   50 type  3   force =    -0.00000182    0.00000404    0.00000308
     atom   51 type  3   force =    -0.00000865   -0.00000192   -0.00000195
     atom   52 type  3   force =    -0.00000131    0.00000843    0.00000751
     atom   53 type  3   force =    -0.00000424    0.00000048    0.00000500
     atom   54 type  3   force =    -0.00000693    0.00000452    0.00000436
     atom   55 type  3   force =    -0.00000001    0.00000061    0.00000332
     atom   56 type  2   force =     0.00000740   -0.00001578   -0.00001049
     atom   57 type  2   force =     0.00000381   -0.00000063   -0.00000040
     atom   58 type  4   force =     0.00000016    0.00000103    0.00000027
     atom   59 type  4   force =     0.00000057    0.00000164    0.00000014
     atom   60 type  4   force =    -0.00000032    0.00000199    0.00000197
     atom   61 type  4   force =    -0.00000082   -0.00000045   -0.00000053
     atom   62 type  4   force =    -0.00000170    0.00000116    0.00000176
     atom   63 type  4   force =     0.00000049    0.00000052    0.00000060

     DFT-D3 dispersion contribution to forces:
     atom    1 type  1   force =    -0.00001288    0.00000114    0.00008444
     atom    2 type  1   force =    -0.00000363   -0.00000377    0.00010115
     atom    3 type  1   force =     0.00075289    0.00000066    0.00117125
     atom    4 type  1   force =     0.00076311   -0.00000040    0.00115844
     atom    5 type  1   force =    -0.00003191    0.00042637   -0.00174302
     atom    6 type  1   force =    -0.00000047   -0.00036437   -0.00194043
     atom    7 type  1   force =    -0.00000733   -0.00000861    0.00008828
     atom    8 type  1   force =    -0.00000694    0.00000743    0.00009594
     atom    9 type  1   force =     0.00073906    0.00000165    0.00116232
     atom   10 type  1   force =     0.00075749   -0.00000614    0.00115413
     atom   11 type  1   force =     0.00031877   -0.00006782   -0.00108777
     atom   12 type  1   force =    -0.00025174    0.00001292   -0.00240169
     atom   13 type  1   force =    -0.00001186   -0.00000056    0.00010699
     atom   14 type  1   force =    -0.00000620   -0.00000301    0.00010955
     atom   15 type  1   force =     0.00080747   -0.00000593    0.00124244
     atom   16 type  1   force =     0.00082156    0.00002682    0.00116402
     atom   17 type  1   force =    -0.00041657    0.00021081   -0.00216718
     atom   18 type  1   force =    -0.00052640   -0.00031106   -0.00197920
     atom   19 type  1   force =    -0.00000691   -0.00000068    0.00011060
     atom   20 type  1   force =    -0.00000719    0.00000305    0.00011115
     atom   21 type  1   force =     0.00081026    0.00000549    0.00128110
     atom   22 type  1   force =     0.00081701   -0.00002380    0.00116509
     atom   23 type  1   force =    -0.00085241    0.00007954   -0.00152872
     atom   24 type  1   force =    -0.00025786   -0.00001233   -0.00244450
     atom   25 type  1   force =    -0.00015777    0.00000402    0.00403384
     atom   26 type  1   force =    -0.00016249   -0.00000448    0.00401166
     atom   27 type  1   force =    -0.00029502   -0.00000771    0.00019243
     atom   28 type  1   force =    -0.00030037    0.00000946    0.00022365
     atom   29 type  1   force =    -0.00017022    0.00018111   -0.00269816
     atom   30 type  1   force =    -0.00010774   -0.00032562   -0.00179641
     atom   31 type  1   force =    -0.00014934   -0.00000318    0.00404733
     atom   32 type  1   force =    -0.00015843    0.00000076    0.00401115
     atom   33 type  1   force =    -0.00031943    0.00000129    0.00033622
     atom   34 type  1   force =    -0.00025812    0.00000072    0.00016112
     atom   35 type  1   force =    -0.00018673    0.00046418   -0.00173452
     atom   36 type  1   force =    -0.00012707   -0.00024447   -0.00263748
     atom   37 type  1   force =    -0.00011963    0.00000412    0.00397692
     atom   38 type  1   force =    -0.00014078   -0.00000053    0.00397918
     atom   39 type  1   force =    -0.00021061   -0.00000382    0.00014176
     atom   40 type  1   force =    -0.00022934    0.00000415    0.00015217
     atom   41 type  1   force =    -0.00010453    0.00002864   -0.00284022
     atom   42 type  1   force =    -0.00007742   -0.00006461   -0.00268306
     atom   43 type  1   force =    -0.00010431   -0.00000453    0.00397752
     atom   44 type  1   force =    -0.00013643    0.00000350    0.00397710
     atom   45 type  1   force =    -0.00023336    0.00000338    0.00015643
     atom   46 type  1   force =    -0.00021527   -0.00000224    0.00014308
     atom   47 type  1   force =    -0.00002248    0.00004995   -0.00262183
     atom   48 type  1   force =    -0.00013087   -0.00001384   -0.00286733
     atom   49 type  3   force =    -0.00009143   -0.00001107    0.00004190
     atom   50 type  3   force =    -0.00004788   -0.00003428   -0.00015321
     atom   51 type  3   force =     0.00017015    0.00009505    0.00005746
     atom   52 type  3   force =    -0.00011801   -0.00002998   -0.00025415
     atom   53 type  3   force =     0.00007954    0.00005592   -0.00008152
     atom   54 type  3   force =    -0.00029285   -0.00012408   -0.00086803
     atom   55 type  3   force =     0.00007642    0.00000900   -0.00098893
     atom   56 type  2   force =     0.00021001    0.00003017   -0.00024614
     atom   57 type  2   force =     0.00003918    0.00002126   -0.00185648
     atom   58 type  4   force =    -0.00000671    0.00001286   -0.00173539
     atom   59 type  4   force =     0.00001678   -0.00001990   -0.00145186
     atom   60 type  4   force =    -0.00004797   -0.00000214   -0.00007699
     atom   61 type  4   force =    -0.00002671   -0.00003078   -0.00001097
     atom   62 type  4   force =    -0.00004377   -0.00000832   -0.00096062
     atom   63 type  4   force =     0.00001366   -0.00001133   -0.00007198

     Total force =     0.001616     Total SCF correction =     0.000631

     DFT-D3 dispersion Force =     0.015524
     SCF correction compared to forces is large: reduce conv_thr to get better values

     Computing stress (Cartesian axis) and pressure

     negative rho (up, down):  3.568E-03 0.000E+00
          total   stress  (Ry/bohr**3)                   (kbar)     P=      -18.47
  -0.00023794   0.00000001  -0.00000032          -35.00        0.00       -0.05
   0.00000001  -0.00012058  -0.00000010            0.00      -17.74       -0.02
  -0.00000032  -0.00000010  -0.00001820           -0.05       -0.02       -2.68

     kinetic stress (kbar)  12412.57    -24.49     10.38
                              -24.49  12447.09     -4.40
                               10.38     -4.40  12441.46

     local   stress (kbar)-972927.68   -624.46    695.25
                             -624.46-979849.38   -104.59
                              695.25   -104.59 980415.36

     nonloc. stress (kbar)  -1155.79      1.73     -1.99
                                1.73  -1148.01      0.39
                               -1.99      0.39  -1183.13

     hartree stress (kbar) 512764.70    231.02   -287.86
                              231.02 515771.34     35.65
                             -287.86     35.65-456773.79

     exc-cor stress (kbar)  -6053.00      1.20     -0.67
                                1.20  -6053.07      0.29
                               -0.67      0.29  -6057.40

     corecor stress (kbar)    -79.97     -0.35      0.23
                               -0.35    -79.24     -0.10
                                0.23     -0.10    -80.32

     ewald   stress (kbar) 455011.62    415.34   -415.30
                              415.34 458902.25     72.75
                             -415.30     72.75-528761.13

     hubbard stress (kbar)      0.00      0.00      0.00
                                0.00      0.00      0.00
                                0.00      0.00      0.00

     DFT-D   stress (kbar)     -7.46      0.01     -0.08
                                0.01     -8.72     -0.00
                               -0.08     -0.00     -3.72

     XDM     stress (kbar)      0.00      0.00      0.00
                                0.00      0.00      0.00
                                0.00      0.00      0.00

     dft-nl  stress (kbar)      0.00      0.00      0.00
                                0.00      0.00      0.00
                                0.00      0.00      0.00

     TS-vdW  stress (kbar)      0.00      0.00      0.00
                                0.00      0.00      0.00
                                0.00      0.00      0.00

     MDB     stress (kbar)      0.00      0.00      0.00
                                0.00      0.00      0.00
                                0.00      0.00      0.00

     3D-RISM stress (kbar)      0.00      0.00      0.00
                                0.00      0.00      0.00
                                0.00      0.00      0.00

     Energy error            =      3.7E-06 Ry
     Gradient error          =      4.2E-04 Ry/Bohr

     bfgs converged in   6 scf cycles and   5 bfgs steps
     (criteria: energy <  1.0E-05 Ry, force <  5.0E-04 Ry/Bohr)

     End of BFGS Geometry Optimization

     Final energy             =  -22331.2513271916 Ry

     File ./tmp/05_Zn100_ABN_topsite_tilted_edgeon.bfgs deleted, as requested
Begin final coordinates

ATOMIC_POSITIONS (angstrom)
Zn               1.2182900000        1.3071800000        0.7547010000    0   0   0
Zn               1.2182900000        6.5359000000        0.7547010000    0   0   0
Zn               0.5051707523       -0.0016678824        3.6491535774
Zn               0.5064249302        5.2310285705        3.6465742633
Zn               1.2181500517       -1.3058163198        6.0919010176
Zn               1.2148873815        3.9222011130        6.0876597978
Zn               1.2182900000        3.9215400000        0.7547010000    0   0   0
Zn               1.2182900000        9.1502600000        0.7547010000    0   0   0
Zn               0.5045730705        2.6166531072        3.6463736525
Zn               0.5071290844        7.8420752374        3.6465437286
Zn               1.2152515311        1.3077584971        6.0795593986
Zn               1.2151283352        6.5365005533        6.0837668786
Zn               6.0914510000        1.3071800000        0.7547010000    0   0   0
Zn               6.0914510000        6.5359000000        0.7547010000    0   0   0
Zn               5.3891977999       -0.0011431921        3.6358467326
Zn               5.3857616272        5.2298429986        3.6421668791
Zn               6.0900593435       -1.3082039500        6.0836316015
Zn               6.0884710832        3.9214082530        6.0792422027
Zn               6.0914510000        3.9215400000        0.7547010000    0   0   0
Zn               6.0914510000        9.1502600000        0.7547010000    0   0   0
Zn               5.3905126185        2.6159984862        3.6302075797
Zn               5.3869785604        7.8418344473        3.6406114740
Zn               6.0897019433        1.3072215795        6.0766697791
Zn               6.0899072087        6.5356623509        6.0778492577
Zn               3.6548710000       -0.0000000000        1.5094010000    0   0   0
Zn               3.6548710000        5.2287200000        1.5094010000    0   0   0
Zn               2.8569119205       -1.3104097721        3.6843132495
Zn               2.8546138341        3.9266918238        3.6821137394
Zn               3.6582241837       -2.6154136357        5.9986491264
Zn               3.6624099794        2.6232417437        5.9489944137
Zn               3.6548710000        2.6143600000        1.5094010000    0   0   0
Zn               3.6548710000        7.8430800000        1.5094010000    0   0   0
Zn               2.8522633102        1.3068296379        3.6780973449
Zn               2.8612317534        6.5369556785        3.6866150283
Zn               3.6668844641       -0.0039716763        5.9699085665
Zn               3.6575356923        5.2320354393        5.9968236702
Zn               8.5280310000       -0.0000000000        1.5094010000    0   0   0
Zn               8.5280310000        5.2287200000        1.5094010000    0   0   0
Zn               7.7412568140       -1.3088097188        3.6934173157
Zn               7.7393030218        3.9235998938        3.6939166652
Zn               8.5333837464       -2.6150478915        6.0079858052
Zn               8.5317043116        2.6154410694        6.0064835940
Zn               8.5280310000        2.6143600000        1.5094010000    0   0   0
Zn               8.5280310000        7.8430800000        1.5094010000    0   0   0
Zn               7.7394970808        1.3076918843        3.6918756360
Zn               7.7409778419        6.5360249175        3.6929300932
Zn               8.5304750622       -0.0006814597        6.0068925296
Zn               8.5312414449        5.2296989776        6.0073114437
C                1.0928564733        1.0803258796       14.2271039272
C                1.7780662992        1.1707288728       12.9816968295
C                3.0716681288        1.7255439047       12.9131385681
C                1.1697595070        0.7194030985       11.7929231288
C                3.7304468719        1.8315205388       11.6982230173
C                1.8282145640        0.8238476295       10.5776131549
C                3.1216497485        1.3859680774       10.5053176919
N                0.5287102987        1.0127950529       15.2476902266
N                3.7884842681        1.4523468026        9.3034144562
H                3.2508055260        1.3638207518        8.4443836042
H                4.5911626998        2.0658568716        9.2232321892
H                0.1701919125        0.2865207270       11.8360098040
H                3.5529488044        2.0777548420       13.8255530578
H                1.3456985094        0.4707485511        9.6631852237
H                4.7322142097        2.2640787889       11.6626035026
End final coordinates

     Writing all to output data dir ./tmp/05_Zn100_ABN_topsite_tilted_edgeon.save/ :
     XML data file, charge density, pseudopotentials, collected wavefunctions

     General routines

     Parallel routines

     PAW routines

   This run was terminated on:   7:17:53   5Apr2025

   JOB DONE.