     Program PWSCF v.7.3.1 starts on 24Mar2025 at 17:57: 3

     Waiting for input...
     Reading input from standard input
Warning: card &CELL ignored
Warning: card   CELL_DOFREE = 'ALL' ignored
Warning: card / ignored

     Current dimensions of program PWSCF are:
     Max number of different atomic species (ntypx) = 10
     Max number of k-points (npk) =  40000
     Max angular momentum in pseudopotentials (lmaxx) =  4

     R & G space division:  proc/nbgrp/npool/nimage =      33
     Subspace diagonalization in iterative solution of the eigenvalue problem:
     one sub-group per band group will be used

     Using Slab Decomposition

     bravais-lattice index     =            0
     lattice parameter (alat)  =      20.9009  a.u.
     unit-cell volume          =   16846.7507 (a.u.)^3
     number of atoms/cell      =           64
     number of atomic types    =            1
     number of electrons       =      1280.00
     number of Kohn-Sham states=          768
     kinetic-energy cutoff     =      30.0000  Ry
     charge density cutoff     =     120.0000  Ry
     scf convergence threshold =      1.0E-08
     mixing beta               =       0.7000
     number of iterations used =            8  plain     mixing
     Exchange-correlation= SLA  PW   PBE  PBE
                           (   1   4   3   4   0   0   0)

     celldm(1)=  20.900943  celldm(2)=   0.000000  celldm(3)=   0.000000
     celldm(4)=   0.000000  celldm(5)=   0.000000  celldm(6)=   0.000000

     crystal axes: (cart. coord. in units of alat)
               a(1) = (   1.000000   0.000000   0.000000 )
               a(2) = (  -0.223489   0.918700   0.000000 )
               a(3) = (  -4.200249  -1.021781   2.008375 )

     reciprocal axes: (cart. coord. in units 2 pi/alat)
               b(1) = (  1.000000  0.243267  2.215131 )
               b(2) = ( -0.000000  1.088495  0.553783 )
               b(3) = (  0.000000 -0.000000  0.497915 )

     PseudoPot. # 1 for Zn read from file:
     /home/ys/qepseudo/SSSP_1.3.0_PBE_efficiency/Zn_pbe_v1.uspp.F.UPF
     MD5 check sum: df62231357ef9e81f77b2b3087fa5675
     Pseudo is Ultrasoft, Zval = 20.0
     Generated by new atomic code, or converted to UPF format
     Using radial grid of  943 points,  6 beta functions with:
                l(1) =   0
                l(2) =   0
                l(3) =   1
                l(4) =   1
                l(5) =   2
                l(6) =   2
     Q(r) pseudized with  8 coefficients,  rinner =    1.100   1.100   1.100
                                                       1.100   1.100

     atomic species   valence    mass     pseudopotential
     Zn               20.00    65.38000     Zn( 1.00)

     No symmetry found

                                    s                        frac. trans.

      isym =  1     identity

 cryst.   s( 1) = (     1          0          0      )
                  (     0          1          0      )
                  (     0          0          1      )

 cart.    s( 1) = (  1.0000000  0.0000000  0.0000000 )
                  (  0.0000000  1.0000000  0.0000000 )
                  (  0.0000000  0.0000000  1.0000000 )

   Cartesian axes

     site n.     atom                  positions (alat units)
         1        Zn     tau(   1) = (  -0.0970639   0.0980210   0.1082939  )
         2        Zn     tau(   2) = (  -0.2088085   0.5573710   0.1082939  )
         3        Zn     tau(   3) = (  -0.4853192   0.0035714   0.2939406  )
         4        Zn     tau(   4) = (  -0.5970639   0.4629214   0.2939406  )
         5        Zn     tau(   5) = (  -0.8778168  -0.0917986   0.5024637  )
         6        Zn     tau(   6) = (  -0.9895264   0.3675466   0.5024137  )
         7        Zn     tau(   7) = (  -1.2406027  -0.1798552   0.6910406  )
         8        Zn     tau(   8) = (  -1.3522669   0.2794611   0.6910199  )
         9        Zn     tau(   9) = (  -0.1529362   0.3276960   0.1082939  )
        10        Zn     tau(  10) = (  -0.2646808   0.7870460   0.1082939  )
        11        Zn     tau(  11) = (  -0.5411915   0.2332464   0.2939406  )
        12        Zn     tau(  12) = (  -0.6529362   0.6925964   0.2939406  )
        13        Zn     tau(  13) = (  -0.9336469   0.1378867   0.5024624  )
        14        Zn     tau(  14) = (  -1.0454415   0.5972109   0.5024147  )
        15        Zn     tau(  15) = (  -1.2963824   0.0498229   0.6909782  )
        16        Zn     tau(  16) = (  -1.4082339   0.5091311   0.6910822  )
        17        Zn     tau(  17) = (   0.4029361   0.0980210   0.1082939  )
        18        Zn     tau(  18) = (   0.2911915   0.5573710   0.1082939  )
        19        Zn     tau(  19) = (   0.0146808   0.0035714   0.2939406  )
        20        Zn     tau(  20) = (  -0.0970639   0.4629214   0.2939406  )
        21        Zn     tau(  21) = (  -0.3778584  -0.0918024   0.5025944  )
        22        Zn     tau(  22) = (  -0.4896087   0.3675192   0.5025659  )
        23        Zn     tau(  23) = (  -0.7409254  -0.1799822   0.6911262  )
        24        Zn     tau(  24) = (  -0.8527216   0.2793980   0.6911899  )
        25        Zn     tau(  25) = (   0.3470638   0.3276960   0.1082939  )
        26        Zn     tau(  26) = (   0.2353192   0.7870460   0.1082939  )
        27        Zn     tau(  27) = (  -0.0411915   0.2332464   0.2939406  )
        28        Zn     tau(  28) = (  -0.1529362   0.6925964   0.2939406  )
        29        Zn     tau(  29) = (  -0.4337391   0.1378295   0.5025928  )
        30        Zn     tau(  30) = (  -0.5454721   0.5972380   0.5025679  )
        31        Zn     tau(  31) = (  -0.7968526   0.0496773   0.6911857  )
        32        Zn     tau(  32) = (  -0.9085381   0.5090884   0.6911313  )
        33        Zn     tau(  33) = (   0.1529362   0.0372043   0.0773528  )
        34        Zn     tau(  34) = (   0.0411915   0.4965543   0.0773528  )
        35        Zn     tau(  35) = (  -0.2353192  -0.0572454   0.2629995  )
        36        Zn     tau(  36) = (  -0.3470638   0.4021046   0.2629995  )
        37        Zn     tau(  37) = (  -0.6280951  -0.1529585   0.4553783  )
        38        Zn     tau(  38) = (  -0.7398296   0.3064181   0.4553934  )
        39        Zn     tau(  39) = (  -1.0052352  -0.2442836   0.6603749  )
        40        Zn     tau(  40) = (  -1.1168712   0.2151081   0.6603799  )
        41        Zn     tau(  41) = (   0.0970639   0.2668793   0.0773528  )
        42        Zn     tau(  42) = (  -0.0146808   0.7262293   0.0773528  )
        43        Zn     tau(  43) = (  -0.2911915   0.1724296   0.2629995  )
        44        Zn     tau(  44) = (  -0.4029361   0.6317796   0.2629995  )
        45        Zn     tau(  45) = (  -0.6839755   0.0767104   0.4553893  )
        46        Zn     tau(  46) = (  -0.7956904   0.5360988   0.4553814  )
        47        Zn     tau(  47) = (  -1.0610488  -0.0145857   0.6603978  )
        48        Zn     tau(  48) = (  -1.1728037   0.4447627   0.6603571  )
        49        Zn     tau(  49) = (   0.6529362   0.0372043   0.0773528  )
        50        Zn     tau(  50) = (   0.5411915   0.4965543   0.0773528  )
        51        Zn     tau(  51) = (   0.2646808  -0.0572454   0.2629995  )
        52        Zn     tau(  52) = (   0.1529362   0.4021046   0.2629995  )
        53        Zn     tau(  53) = (  -0.1280445  -0.1528982   0.4553743  )
        54        Zn     tau(  54) = (  -0.2397657   0.3063891   0.4553297  )
        55        Zn     tau(  55) = (  -0.5055002  -0.2443167   0.6603316  )
        56        Zn     tau(  56) = (  -0.6173111   0.2149623   0.6603566  )
        57        Zn     tau(  57) = (   0.5970639   0.2668793   0.0773528  )
        58        Zn     tau(  58) = (   0.4853192   0.7262293   0.0773528  )
        59        Zn     tau(  59) = (   0.2088085   0.1724296   0.2629995  )
        60        Zn     tau(  60) = (   0.0970639   0.6317796   0.2629995  )
        61        Zn     tau(  61) = (  -0.1838756   0.0767547   0.4553744  )
        62        Zn     tau(  62) = (  -0.2956772   0.5360837   0.4553280  )
        63        Zn     tau(  63) = (  -0.5614277  -0.0146977   0.6603020  )
        64        Zn     tau(  64) = (  -0.6731294   0.4446946   0.6603871  )

   Crystallographic axes

     site n.     atom                  positions (cryst. coord.)
         1        Zn     tau(   1) = (  0.1666667  0.1666667  0.0539212  )
         2        Zn     tau(   2) = (  0.1666667  0.6666667  0.0539212  )
         3        Zn     tau(   3) = (  0.1666667  0.1666667  0.1463574  )
         4        Zn     tau(   4) = (  0.1666667  0.6666667  0.1463574  )
         5        Zn     tau(   5) = (  0.2128747  0.1783335  0.2501842  )
         6        Zn     tau(   6) = (  0.2127978  0.6783005  0.2501593  )
         7        Zn     tau(   7) = (  0.2463902  0.1869149  0.3440795  )
         8        Zn     tau(   8) = (  0.2464166  0.6868668  0.3440692  )
         9        Zn     tau(   9) = (  0.1666667  0.4166667  0.0539212  )
        10        Zn     tau(  10) = (  0.1666667  0.9166667  0.0539212  )
        11        Zn     tau(  11) = (  0.1666667  0.4166667  0.1463574  )
        12        Zn     tau(  12) = (  0.1666667  0.9166667  0.1463574  )
        13        Zn     tau(  13) = (  0.2129167  0.4283440  0.2501836  )
        14        Zn     tau(  14) = (  0.2127547  0.9282895  0.2501598  )
        15        Zn     tau(  15) = (  0.2463452  0.4368838  0.3440484  )
        16        Zn     tau(  16) = (  0.2464587  0.9368959  0.3441002  )
        17        Zn     tau(  17) = (  0.6666667  0.1666667  0.0539212  )
        18        Zn     tau(  18) = (  0.6666667  0.6666667  0.0539212  )
        19        Zn     tau(  19) = (  0.6666667  0.1666667  0.1463574  )
        20        Zn     tau(  20) = (  0.6666667  0.6666667  0.1463574  )
        21        Zn     tau(  21) = (  0.7131217  0.1784017  0.2502493  )
        22        Zn     tau(  22) = (  0.7130461  0.6783550  0.2502351  )
        23        Zn     tau(  23) = (  0.7462263  0.1868242  0.3441221  )
        24        Zn     tau(  24) = (  0.7463231  0.6868923  0.3441538  )
        25        Zn     tau(  25) = (  0.6666667  0.4166667  0.0539212  )
        26        Zn     tau(  26) = (  0.6666667  0.9166667  0.0539212  )
        27        Zn     tau(  27) = (  0.6666667  0.4166667  0.1463574  )
        28        Zn     tau(  28) = (  0.6666667  0.9166667  0.1463574  )
        29        Zn     tau(  29) = (  0.7130994  0.4283539  0.2502485  )
        30        Zn     tau(  30) = (  0.7130701  0.9284039  0.2502361  )
        31        Zn     tau(  31) = (  0.7462994  0.4368403  0.3441517  )
        32        Zn     tau(  32) = (  0.7462528  0.9368766  0.3441246  )
        33        Zn     tau(  33) = (  0.3333333  0.0833333  0.0385151  )
        34        Zn     tau(  34) = (  0.3333333  0.5833333  0.0385151  )
        35        Zn     tau(  35) = (  0.3333333  0.0833333  0.1309514  )
        36        Zn     tau(  36) = (  0.3333333  0.5833333  0.1309514  )
        37        Zn     tau(  37) = (  0.3434179  0.0856861  0.2267397  )
        38        Zn     tau(  38) = (  0.3434679  0.5857235  0.2267472  )
[...]
     atom   25 type  1   force =     0.00000000    0.00000000    0.00000000
     atom   26 type  1   force =     0.00000000    0.00000000    0.00000000
     atom   27 type  1   force =     0.00000000    0.00000000    0.00000000
     atom   28 type  1   force =     0.00000000    0.00000000    0.00000000
     atom   29 type  1   force =     0.00000000    0.00000000    0.00000000
     atom   30 type  1   force =     0.00000000    0.00000000    0.00000000
     atom   31 type  1   force =     0.00000000    0.00000000    0.00000000
     atom   32 type  1   force =     0.00000000    0.00000000    0.00000000
     atom   33 type  1   force =     0.00000000    0.00000000    0.00000000
     atom   34 type  1   force =     0.00000000    0.00000000    0.00000000
     atom   35 type  1   force =     0.00000000    0.00000000    0.00000000
     atom   36 type  1   force =     0.00000000    0.00000000    0.00000000
     atom   37 type  1   force =     0.00000000    0.00000000    0.00000000
     atom   38 type  1   force =     0.00000000    0.00000000    0.00000000
     atom   39 type  1   force =     0.00000000    0.00000000    0.00000000
     atom   40 type  1   force =     0.00000000    0.00000000    0.00000000
     atom   41 type  1   force =     0.00000000    0.00000000    0.00000000
     atom   42 type  1   force =     0.00000000    0.00000000    0.00000000
     atom   43 type  1   force =     0.00000000    0.00000000    0.00000000
     atom   44 type  1   force =     0.00000000    0.00000000    0.00000000
     atom   45 type  1   force =     0.00000000    0.00000000    0.00000000
     atom   46 type  1   force =     0.00000000    0.00000000    0.00000000
     atom   47 type  1   force =     0.00000000    0.00000000    0.00000000
     atom   48 type  1   force =     0.00000000    0.00000000    0.00000000
     atom   49 type  1   force =     0.00000000    0.00000000    0.00000000
     atom   50 type  1   force =     0.00000000    0.00000000    0.00000000
     atom   51 type  1   force =     0.00000000    0.00000000    0.00000000
     atom   52 type  1   force =     0.00000000    0.00000000    0.00000000
     atom   53 type  1   force =     0.00000000    0.00000000    0.00000000
     atom   54 type  1   force =     0.00000000    0.00000000    0.00000000
     atom   55 type  1   force =     0.00000000    0.00000000    0.00000000
     atom   56 type  1   force =     0.00000000    0.00000000    0.00000000
     atom   57 type  1   force =     0.00000000    0.00000000    0.00000000
     atom   58 type  1   force =     0.00000000    0.00000000    0.00000000
     atom   59 type  1   force =     0.00000000    0.00000000    0.00000000
     atom   60 type  1   force =     0.00000000    0.00000000    0.00000000
     atom   61 type  1   force =     0.00000000    0.00000000    0.00000000
     atom   62 type  1   force =     0.00000000    0.00000000    0.00000000
     atom   63 type  1   force =     0.00000000    0.00000000    0.00000000
     atom   64 type  1   force =     0.00000000    0.00000000    0.00000000
     The Hubbard contrib.    to forces
     atom    1 type  1   force =     0.00000000    0.00000000    0.00000000
     atom    2 type  1   force =     0.00000000    0.00000000    0.00000000
     atom    3 type  1   force =     0.00000000    0.00000000    0.00000000
     atom    4 type  1   force =     0.00000000    0.00000000    0.00000000
     atom    5 type  1   force =     0.00000000    0.00000000    0.00000000
     atom    6 type  1   force =     0.00000000    0.00000000    0.00000000
     atom    7 type  1   force =     0.00000000    0.00000000    0.00000000
     atom    8 type  1   force =     0.00000000    0.00000000    0.00000000
     atom    9 type  1   force =     0.00000000    0.00000000    0.00000000
     atom   10 type  1   force =     0.00000000    0.00000000    0.00000000
     atom   11 type  1   force =     0.00000000    0.00000000    0.00000000
     atom   12 type  1   force =     0.00000000    0.00000000    0.00000000
     atom   13 type  1   force =     0.00000000    0.00000000    0.00000000
     atom   14 type  1   force =     0.00000000    0.00000000    0.00000000
     atom   15 type  1   force =     0.00000000    0.00000000    0.00000000
     atom   16 type  1   force =     0.00000000    0.00000000    0.00000000
     atom   17 type  1   force =     0.00000000    0.00000000    0.00000000
     atom   18 type  1   force =     0.00000000    0.00000000    0.00000000
     atom   19 type  1   force =     0.00000000    0.00000000    0.00000000
     atom   20 type  1   force =     0.00000000    0.00000000    0.00000000
     atom   21 type  1   force =     0.00000000    0.00000000    0.00000000
     atom   22 type  1   force =     0.00000000    0.00000000    0.00000000
     atom   23 type  1   force =     0.00000000    0.00000000    0.00000000
     atom   24 type  1   force =     0.00000000    0.00000000    0.00000000
     atom   25 type  1   force =     0.00000000    0.00000000    0.00000000
     atom   26 type  1   force =     0.00000000    0.00000000    0.00000000
     atom   27 type  1   force =     0.00000000    0.00000000    0.00000000
     atom   28 type  1   force =     0.00000000    0.00000000    0.00000000
     atom   29 type  1   force =     0.00000000    0.00000000    0.00000000
     atom   30 type  1   force =     0.00000000    0.00000000    0.00000000
     atom   31 type  1   force =     0.00000000    0.00000000    0.00000000
     atom   32 type  1   force =     0.00000000    0.00000000    0.00000000
     atom   33 type  1   force =     0.00000000    0.00000000    0.00000000
     atom   34 type  1   force =     0.00000000    0.00000000    0.00000000
     atom   35 type  1   force =     0.00000000    0.00000000    0.00000000
     atom   36 type  1   force =     0.00000000    0.00000000    0.00000000
     atom   37 type  1   force =     0.00000000    0.00000000    0.00000000
     atom   38 type  1   force =     0.00000000    0.00000000    0.00000000
     atom   39 type  1   force =     0.00000000    0.00000000    0.00000000
     atom   40 type  1   force =     0.00000000    0.00000000    0.00000000
     atom   41 type  1   force =     0.00000000    0.00000000    0.00000000
     atom   42 type  1   force =     0.00000000    0.00000000    0.00000000
     atom   43 type  1   force =     0.00000000    0.00000000    0.00000000
     atom   44 type  1   force =     0.00000000    0.00000000    0.00000000
     atom   45 type  1   force =     0.00000000    0.00000000    0.00000000
     atom   46 type  1   force =     0.00000000    0.00000000    0.00000000
     atom   47 type  1   force =     0.00000000    0.00000000    0.00000000
     atom   48 type  1   force =     0.00000000    0.00000000    0.00000000
     atom   49 type  1   force =     0.00000000    0.00000000    0.00000000
     atom   50 type  1   force =     0.00000000    0.00000000    0.00000000
     atom   51 type  1   force =     0.00000000    0.00000000    0.00000000
     atom   52 type  1   force =     0.00000000    0.00000000    0.00000000
     atom   53 type  1   force =     0.00000000    0.00000000    0.00000000
     atom   54 type  1   force =     0.00000000    0.00000000    0.00000000
     atom   55 type  1   force =     0.00000000    0.00000000    0.00000000
     atom   56 type  1   force =     0.00000000    0.00000000    0.00000000
     atom   57 type  1   force =     0.00000000    0.00000000    0.00000000
     atom   58 type  1   force =     0.00000000    0.00000000    0.00000000
     atom   59 type  1   force =     0.00000000    0.00000000    0.00000000
     atom   60 type  1   force =     0.00000000    0.00000000    0.00000000
     atom   61 type  1   force =     0.00000000    0.00000000    0.00000000
     atom   62 type  1   force =     0.00000000    0.00000000    0.00000000
     atom   63 type  1   force =     0.00000000    0.00000000    0.00000000
     atom   64 type  1   force =     0.00000000    0.00000000    0.00000000
     The SCF correction term to forces
     atom    1 type  1   force =    -0.00007540   -0.00001601    0.00009628
     atom    2 type  1   force =    -0.00007694   -0.00002101    0.00010122
     atom    3 type  1   force =     0.00009605    0.00001350    0.00003746
     atom    4 type  1   force =     0.00009396    0.00003271    0.00005436
     atom    5 type  1   force =    -0.00000484    0.00001548   -0.00002627
     atom    6 type  1   force =     0.00004323   -0.00000680   -0.00004575
     atom    7 type  1   force =     0.00003825   -0.00001961   -0.00005147
     atom    8 type  1   force =    -0.00000850    0.00002666   -0.00003701
     atom    9 type  1   force =    -0.00007032   -0.00000352    0.00009198
     atom   10 type  1   force =    -0.00008224   -0.00003332    0.00010575
     atom   11 type  1   force =     0.00007950    0.00004929    0.00005303
     atom   12 type  1   force =     0.00011044   -0.00000244    0.00003859
     atom   13 type  1   force =     0.00003901   -0.00000603   -0.00002482
     atom   14 type  1   force =    -0.00000118    0.00001509   -0.00004712
     atom   15 type  1   force =     0.00003036   -0.00001298   -0.00003461
     atom   16 type  1   force =    -0.00000045    0.00001964   -0.00005410
     atom   17 type  1   force =     0.00007480    0.00002176    0.00007738
     atom   18 type  1   force =     0.00007210    0.00001318    0.00008668
     atom   19 type  1   force =    -0.00002973   -0.00001650    0.00009603
     atom   20 type  1   force =    -0.00003007    0.00000214    0.00006284
     atom   21 type  1   force =     0.00004338   -0.00002320   -0.00010692
     atom   22 type  1   force =    -0.00000365    0.00003343   -0.00009604
     atom   23 type  1   force =    -0.00004810    0.00001274   -0.00005393
     atom   24 type  1   force =    -0.00000113   -0.00002394   -0.00006558
     atom   25 type  1   force =     0.00006676    0.00003954    0.00008779
     atom   26 type  1   force =     0.00008011   -0.00000427    0.00007618
     atom   27 type  1   force =    -0.00001394   -0.00000212    0.00007529
     atom   28 type  1   force =    -0.00004544   -0.00001201    0.00008380
     atom   29 type  1   force =     0.00000081    0.00002138   -0.00009974
     atom   30 type  1   force =     0.00003913   -0.00001202   -0.00010305
     atom   31 type  1   force =    -0.00004033    0.00000887   -0.00006265
     atom   32 type  1   force =    -0.00000865   -0.00002106   -0.00005660
     atom   33 type  1   force =    -0.00007672   -0.00001618    0.00010035
     atom   34 type  1   force =    -0.00006688   -0.00001834    0.00010379
     atom   35 type  1   force =     0.00001847   -0.00002375    0.00003684
     atom   36 type  1   force =     0.00000082    0.00002863    0.00003392
     atom   37 type  1   force =    -0.00008799   -0.00002359   -0.00000067
     atom   38 type  1   force =    -0.00007527   -0.00001571    0.00001828
     atom   39 type  1   force =     0.00006217    0.00003600   -0.00006196
     atom   40 type  1   force =     0.00011043    0.00000548   -0.00004895
     atom   41 type  1   force =    -0.00007319    0.00000397    0.00010237
     atom   42 type  1   force =    -0.00007005   -0.00003887    0.00010167
     atom   43 type  1   force =     0.00001367    0.00000790    0.00002374
     atom   44 type  1   force =     0.00000600   -0.00000267    0.00004758
     atom   45 type  1   force =    -0.00010652    0.00000310    0.00002242
     atom   46 type  1   force =    -0.00005640   -0.00004369   -0.00000461
     atom   47 type  1   force =     0.00010466    0.00000081   -0.00005794
     atom   48 type  1   force =     0.00006733    0.00004099   -0.00005283
     atom   49 type  1   force =     0.00007466    0.00000814    0.00009921
     atom   50 type  1   force =     0.00006778    0.00002595    0.00011628
     atom   51 type  1   force =    -0.00007084   -0.00002018    0.00015473
     atom   52 type  1   force =    -0.00005039   -0.00000951    0.00014601
     atom   53 type  1   force =     0.00002410   -0.00001540   -0.00010053
     atom   54 type  1   force =     0.00000971    0.00002365   -0.00011831
     atom   55 type  1   force =    -0.00004574   -0.00003848   -0.00001820
     atom   56 type  1   force =    -0.00009340    0.00000510   -0.00002073
     atom   57 type  1   force =     0.00007262    0.00003122    0.00010274
     atom   58 type  1   force =     0.00007002    0.00000346    0.00011263
     atom   59 type  1   force =    -0.00006602    0.00000354    0.00016760
     atom   60 type  1   force =    -0.00005591   -0.00003278    0.00013308
     atom   61 type  1   force =     0.00004136   -0.00001989   -0.00010890
     atom   62 type  1   force =    -0.00000801    0.00002812   -0.00010995
     atom   63 type  1   force =    -0.00008824   -0.00000121   -0.00001052
     atom   64 type  1   force =    -0.00005121   -0.00003222   -0.00002852

     Total force =     0.103208     Total SCF correction =     0.000829

     Computing stress (Cartesian axis) and pressure

          total   stress  (Ry/bohr**3)                   (kbar)     P=     -281.73
  -0.00198922  -0.00002330   0.00002702         -292.62       -3.43        3.97
  -0.00002330  -0.00192123   0.00000427           -3.43     -282.62        0.63
   0.00002702   0.00000427  -0.00183507            3.97        0.63     -269.95

     kinetic stress (kbar)  15082.56      6.25     -5.86
                                6.25  15053.69     -1.33
                               -5.86     -1.33  15108.22

     local   stress (kbar)**********   3424.25  -2315.86
                             3424.25**********   -559.00
                            -2315.86   -559.001207901.76

     nonloc. stress (kbar)  -1861.40     -6.81      4.48
                               -6.81  -1835.17      0.89
                                4.48      0.89  -1870.20

     hartree stress (kbar) 630437.55  -1471.35    970.73
                            -1471.35 636127.07    234.37
                              970.73    234.37-562370.92

     exc-cor stress (kbar)  -7542.39     -0.91      0.64
                               -0.91  -7538.92      0.16
                                0.64      0.16  -7545.64

     corecor stress (kbar)      0.00      0.00      0.00
                                0.00      0.00      0.00
                                0.00      0.00      0.00

     ewald   stress (kbar) 557232.83  -1954.86   1349.83
                            -1954.86 564795.07    325.54
                             1349.83    325.54-651493.18

     hubbard stress (kbar)      0.00      0.00      0.00
                                0.00      0.00      0.00
                                0.00      0.00      0.00

     DFT-D   stress (kbar)      0.00      0.00      0.00
                                0.00      0.00      0.00
                                0.00      0.00      0.00

     XDM     stress (kbar)      0.00      0.00      0.00
                                0.00      0.00      0.00
                                0.00      0.00      0.00

     dft-nl  stress (kbar)      0.00      0.00      0.00
                                0.00      0.00      0.00
                                0.00      0.00      0.00

     TS-vdW  stress (kbar)      0.00      0.00      0.00
                                0.00      0.00      0.00
                                0.00      0.00      0.00

     MDB     stress (kbar)      0.00      0.00      0.00
                                0.00      0.00      0.00
                                0.00      0.00      0.00

     3D-RISM stress (kbar)      0.00      0.00      0.00
                                0.00      0.00      0.00
                                0.00      0.00      0.00

     Writing all to output data dir ./tmp/Zn101_2x2x4_scf.save/ :
     XML data file, charge density, pseudopotentials, collected wavefunctions

     General routines

     Parallel routines

   This run was terminated on:  19:28:16  24Mar2025

   JOB DONE.
Note: The following floating-point exceptions are signalling: IEEE_DENORMAL
Note: The following floating-point exceptions are signalling: IEEE_DENORMAL
Note: The following floating-point exceptions are signalling: IEEE_DENORMAL
Note: The following floating-point exceptions are signalling: IEEE_DENORMAL
Note: The following floating-point exceptions are signalling: IEEE_DENORMAL
Note: The following floating-point exceptions are signalling: IEEE_DENORMAL
Note: The following floating-point exceptions are signalling: IEEE_DENORMAL
Note: The following floating-point exceptions are signalling: IEEE_DENORMAL
Note: The following floating-point exceptions are signalling: IEEE_DENORMAL
Note: The following floating-point exceptions are signalling: IEEE_DENORMAL
Note: The following floating-point exceptions are signalling: IEEE_DENORMAL