     Program PWSCF v.7.3.1 starts on 22Mar2025 at 15:29:50

     Waiting for input...
     Reading input from standard input
Warning: card &CELL ignored
Warning: card   CELL_DOFREE = 'ALL' ignored
Warning: card / ignored

     Current dimensions of program PWSCF are:
     Max number of different atomic species (ntypx) = 10
     Max number of k-points (npk) =  40000
     Max angular momentum in pseudopotentials (lmaxx) =  4
     file C.pbe-n-kjpaw_psl.1.0.0.UPF: wavefunction(s)  2S 2P renormalized

     R & G space division:  proc/nbgrp/npool/nimage =      16
     Subspace diagonalization in iterative solution of the eigenvalue problem:
     one sub-group per band group will be used

     Using Slab Decomposition

     bravais-lattice index     =            0
     lattice parameter (alat)  =      19.7617  a.u.
     unit-cell volume          =   15176.5939 (a.u.)^3
     number of atoms/cell      =           79
     number of atomic types    =            4
     number of electrons       =      1324.00
     number of Kohn-Sham states=          794
     kinetic-energy cutoff     =      30.0000  Ry
     charge density cutoff     =     120.0000  Ry
     scf convergence threshold =      7.3E-07
     mixing beta               =       0.7000
     number of iterations used =            8  plain     mixing
     Exchange-correlation= PBE
                           (   1   4   3   4   0   0   0)

     celldm(1)=  19.761696  celldm(2)=   0.000000  celldm(3)=   0.000000
     celldm(4)=   0.000000  celldm(5)=   0.000000  celldm(6)=   0.000000

     crystal axes: (cart. coord. in units of alat)
               a(1) = (   1.000000   0.000000   0.000000 )
               a(2) = (  -0.500000   0.866025   0.000000 )
               a(3) = (   0.000000   0.000000   2.270759 )

     reciprocal axes: (cart. coord. in units 2 pi/alat)
               b(1) = (  1.000000  0.577350 -0.000000 )
               b(2) = (  0.000000  1.154701  0.000000 )
               b(3) = (  0.000000 -0.000000  0.440381 )

     PseudoPot. # 1 for Zn read from file:
     /home/ys/qepseudo/SSSP_1.3.0_PBE_efficiency/Zn_pbe_v1.uspp.F.UPF
     MD5 check sum: df62231357ef9e81f77b2b3087fa5675
     Pseudo is Ultrasoft, Zval = 20.0
     Generated by new atomic code, or converted to UPF format
     Using radial grid of  943 points,  6 beta functions with:
                l(1) =   0
                l(2) =   0
                l(3) =   1
                l(4) =   1
                l(5) =   2
                l(6) =   2
     Q(r) pseudized with  8 coefficients,  rinner =    1.100   1.100   1.100
                                                       1.100   1.100

     PseudoPot. # 2 for C  read from file:
     /home/ys/qepseudo/SSSP_1.3.0_PBE_efficiency/C.pbe-n-kjpaw_psl.1.0.0.UPF
     MD5 check sum: 5d2aebdfa2cae82b50a7e79e9516da0f
     Pseudo is Projector augmented-wave + core cor, Zval =  4.0
     Generated using "atomic" code by A. Dal Corso  v.5.1
     Shape of augmentation charge: PSQ
     Using radial grid of 1073 points,  4 beta functions with:
                l(1) =   0
                l(2) =   0
                l(3) =   1
                l(4) =   1
     Q(r) pseudized with 0 coefficients

     PseudoPot. # 3 for N  read from file:
     /home/ys/qepseudo/SSSP_1.3.0_PBE_efficiency/N.pbe-n-radius_5.UPF
     MD5 check sum: 16739722b17309cd8fe442a2ace49922
     Pseudo is Ultrasoft + core correction, Zval =  5.0
     Generated using "atomic" code by A. Dal Corso  v.5.1
     Using radial grid of 1085 points,  4 beta functions with:
                l(1) =   0
                l(2) =   0
                l(3) =   1
                l(4) =   1
     Q(r) pseudized with 0 coefficients

     PseudoPot. # 4 for H  read from file:
     /home/ys/qepseudo/SSSP_1.3.0_PBE_efficiency/H.pbe-rrkjus_psl.1.0.0.UPF
     MD5 check sum: f52b6d4d1c606e5624b1dc7b2218f220
     Pseudo is Ultrasoft, Zval =  1.0
     Generated using "atomic" code by A. Dal Corso  v.5.1
     Using radial grid of  929 points,  2 beta functions with:
                l(1) =   0
                l(2) =   0
     Q(r) pseudized with 0 coefficients

     atomic species   valence    mass     pseudopotential
     Zn               20.00    65.38000     Zn( 1.00)
     C                 4.00    12.01070     C ( 1.00)
     N                 5.00    14.00670     N ( 1.00)
     H                 1.00     1.00800     H ( 1.00)

     No symmetry found

                                    s                        frac. trans.

      isym =  1     identity

 cryst.   s( 1) = (     1          0          0      )
                  (     0          1          0      )
                  (     0          0          1      )

 cart.    s( 1) = (  1.0000000  0.0000000  0.0000000 )
                  (  0.0000000  1.0000000  0.0000000 )
                  (  0.0000000  0.0000000  1.0000000 )

   Cartesian axes

     site n.     atom                  positions (alat units)
         1        Zn     tau(   1) = (  -0.0000000   0.1443376   0.1164999  )
         2        Zn     tau(   2) = (   0.5000000   0.1443376   0.1164999  )
         3        Zn     tau(   3) = (   0.0001063   0.1443772   0.5902127  )
         4        Zn     tau(   4) = (   0.4998958   0.1443643   0.5917156  )
         5        Zn     tau(   5) = (  -0.1250000   0.3608439   0.1164999  )
         6        Zn     tau(   6) = (   0.3750000   0.3608439   0.1164999  )
         7        Zn     tau(   7) = (  -0.1249761   0.3609302   0.5908726  )
         8        Zn     tau(   8) = (   0.3749642   0.3608477   0.5913644  )
         9        Zn     tau(   9) = (  -0.2500000   0.5773503   0.1164999  )
        10        Zn     tau(  10) = (   0.2500000   0.5773503   0.1164999  )
        11        Zn     tau(  11) = (  -0.2499911   0.5773738   0.5915504  )
        12        Zn     tau(  12) = (   0.2499824   0.5772583   0.5907382  )
        13        Zn     tau(  13) = (  -0.3750000   0.7938566   0.1164999  )
        14        Zn     tau(  14) = (   0.1250000   0.7938566   0.1164999  )
        15        Zn     tau(  15) = (  -0.3749161   0.7938269   0.5909604  )
        16        Zn     tau(  16) = (   0.1249053   0.7937898   0.5911170  )
        17        Zn     tau(  17) = (   0.2500000   0.1443376   0.1164999  )
        18        Zn     tau(  18) = (   0.7500000   0.1443376   0.1164999  )
        19        Zn     tau(  19) = (   0.2499566   0.1443139   0.5910485  )
        20        Zn     tau(  20) = (   0.7500401   0.1444360   0.5909256  )
        21        Zn     tau(  21) = (   0.1250000   0.3608439   0.1164999  )
        22        Zn     tau(  22) = (   0.6250000   0.3608439   0.1164999  )
        23        Zn     tau(  23) = (   0.1249684   0.3608327   0.5904686  )
        24        Zn     tau(  24) = (   0.6250220   0.3609386   0.5917101  )
        25        Zn     tau(  25) = (  -0.0000000   0.5773503   0.1164999  )
        26        Zn     tau(  26) = (   0.5000000   0.5773503   0.1164999  )
        27        Zn     tau(  27) = (  -0.0000983   0.5773031   0.5910657  )
        28        Zn     tau(  28) = (   0.5000885   0.5773473   0.5912976  )
        29        Zn     tau(  29) = (  -0.1250000   0.7938566   0.1164999  )
        30        Zn     tau(  30) = (   0.3750000   0.7938566   0.1164999  )
        31        Zn     tau(  31) = (  -0.1251014   0.7937984   0.5915674  )
        32        Zn     tau(  32) = (   0.3751324   0.7938157   0.5904624  )
        33        Zn     tau(  33) = (   0.1250000   0.0721688   0.3494996  )
        34        Zn     tau(  34) = (   0.6250000   0.0721688   0.3494996  )
        35        Zn     tau(  35) = (   0.1248879   0.0718532   0.8329060  )
        36        Zn     tau(  36) = (   0.6248090   0.0717583   0.8328049  )
        37        Zn     tau(  37) = (   0.0000000   0.2886751   0.3494996  )
        38        Zn     tau(  38) = (   0.5000000   0.2886751   0.3494996  )
        39        Zn     tau(  39) = (  -0.0001280   0.2882322   0.8325392  )
        40        Zn     tau(  40) = (   0.5000317   0.2882198   0.8299154  )
        41        Zn     tau(  41) = (  -0.1250000   0.5051815   0.3494996  )
        42        Zn     tau(  42) = (   0.3750000   0.5051815   0.3494996  )
        43        Zn     tau(  43) = (  -0.1251048   0.5047623   0.8328278  )
        44        Zn     tau(  44) = (   0.3750239   0.5052482   0.8296160  )
        45        Zn     tau(  45) = (  -0.2500000   0.7216878   0.3494996  )
        46        Zn     tau(  46) = (   0.2500000   0.7216878   0.3494996  )
        47        Zn     tau(  47) = (  -0.2501801   0.7214512   0.8331201  )
        48        Zn     tau(  48) = (   0.2499162   0.7216594   0.8327801  )
        49        Zn     tau(  49) = (   0.3750000   0.0721688   0.3494996  )
        50        Zn     tau(  50) = (   0.8750000   0.0721688   0.3494996  )
        51        Zn     tau(  51) = (   0.3747553   0.0716765   0.8331842  )
        52        Zn     tau(  52) = (   0.8749606   0.0720007   0.8324611  )
        53        Zn     tau(  53) = (   0.2500000   0.2886751   0.3494996  )
        54        Zn     tau(  54) = (   0.7500000   0.2886751   0.3494996  )
        55        Zn     tau(  55) = (   0.2496057   0.2878936   0.8304187  )
        56        Zn     tau(  56) = (   0.7499715   0.2884205   0.8328317  )
        57        Zn     tau(  57) = (   0.1250000   0.5051815   0.3494996  )
        58        Zn     tau(  58) = (   0.6250000   0.5051815   0.3494996  )
        59        Zn     tau(  59) = (   0.1246732   0.5049557   0.8297126  )
        60        Zn     tau(  60) = (   0.6250091   0.5051114   0.8332599  )
[...]
        65        C      tau(  65) = (   0.3121632   0.4311113   1.6964342  )
        66        C      tau(  66) = (   0.3122896   0.4204090   1.5604959  )
        67        C      tau(  67) = (   0.4138005   0.3587948   1.4966485  )
        68        C      tau(  68) = (   0.2104919   0.4698859   1.4871331  )
        69        C      tau(  69) = (   0.2096482   0.4579993   1.3552399  )
        70        C      tau(  70) = (   0.4131239   0.3470413   1.3647054  )
        71        C      tau(  71) = (   0.3111834   0.3962412   1.2910151  )
        72        N      tau(  72) = (   0.3121978   0.4390811   1.8084500  )
        73        N      tau(  73) = (   0.3078497   0.3790063   1.1605640  )
        74        H      tau(  74) = (   0.2477278   0.4345804   1.1075559  )
        75        H      tau(  75) = (   0.3906677   0.3561011   1.1145264  )
        76        H      tau(  76) = (   0.4933030   0.3197881   1.5522512  )
        77        H      tau(  77) = (   0.1308241   0.5172172   1.5356201  )
        78        H      tau(  78) = (   0.1291686   0.4962579   1.3001987  )
        79        H      tau(  79) = (   0.4927366   0.2987888   1.3166715  )

   Crystallographic axes

     site n.     atom                  positions (cryst. coord.)
         1        Zn     tau(   1) = (  0.0833333  0.1666667  0.0513044  )
         2        Zn     tau(   2) = (  0.5833333  0.1666667  0.0513044  )
         3        Zn     tau(   3) = (  0.0834625  0.1667124  0.2599187  )
         4        Zn     tau(   4) = (  0.5832446  0.1666976  0.2605806  )
[...]
     atom   57 type  1   force =     0.00000000    0.00000000    0.00000000
     atom   58 type  1   force =     0.00000000    0.00000000    0.00000000
     atom   59 type  1   force =     0.00000000    0.00000000    0.00000000
     atom   60 type  1   force =     0.00000000    0.00000000    0.00000000
[...]
     atom   65 type  2   force =    -0.00026593    0.00164468    0.01402179
     atom   66 type  2   force =     0.00078978    0.00004732   -0.00434751
     atom   67 type  2   force =     0.00182446    0.00008271   -0.00407867
     atom   68 type  2   force =     0.00185383   -0.00030876   -0.00712963
     atom   69 type  2   force =    -0.00131511    0.00063167    0.00463710
     atom   70 type  2   force =    -0.00259413    0.00088355    0.00522406
     atom   71 type  2   force =     0.00190761    0.00220775    0.00154907
     atom   72 type  3   force =    -0.00000241    0.00082569    0.01158359
     atom   73 type  3   force =    -0.00295555   -0.00535835   -0.00103117
     atom   74 type  4   force =     0.00000000    0.00000000    0.00000000
     atom   75 type  4   force =     0.00000000    0.00000000    0.00000000
     atom   76 type  4   force =     0.00000000    0.00000000    0.00000000
     atom   77 type  4   force =     0.00000000    0.00000000    0.00000000
     atom   78 type  4   force =     0.00000000    0.00000000    0.00000000
     atom   79 type  4   force =     0.00000000    0.00000000    0.00000000
     The Hubbard contrib.    to forces
     atom    1 type  1   force =     0.00000000    0.00000000    0.00000000
     atom    2 type  1   force =     0.00000000    0.00000000    0.00000000
     atom    3 type  1   force =     0.00000000    0.00000000    0.00000000
     atom    4 type  1   force =     0.00000000    0.00000000    0.00000000
     atom    5 type  1   force =     0.00000000    0.00000000    0.00000000
     atom    6 type  1   force =     0.00000000    0.00000000    0.00000000
     atom    7 type  1   force =     0.00000000    0.00000000    0.00000000
     atom    8 type  1   force =     0.00000000    0.00000000    0.00000000
     atom    9 type  1   force =     0.00000000    0.00000000    0.00000000
     atom   10 type  1   force =     0.00000000    0.00000000    0.00000000
     atom   11 type  1   force =     0.00000000    0.00000000    0.00000000
     atom   12 type  1   force =     0.00000000    0.00000000    0.00000000
     atom   13 type  1   force =     0.00000000    0.00000000    0.00000000
     atom   14 type  1   force =     0.00000000    0.00000000    0.00000000
     atom   15 type  1   force =     0.00000000    0.00000000    0.00000000
     atom   16 type  1   force =     0.00000000    0.00000000    0.00000000
     atom   17 type  1   force =     0.00000000    0.00000000    0.00000000
     atom   18 type  1   force =     0.00000000    0.00000000    0.00000000
     atom   19 type  1   force =     0.00000000    0.00000000    0.00000000
     atom   20 type  1   force =     0.00000000    0.00000000    0.00000000
     atom   21 type  1   force =     0.00000000    0.00000000    0.00000000
     atom   22 type  1   force =     0.00000000    0.00000000    0.00000000
     atom   23 type  1   force =     0.00000000    0.00000000    0.00000000
     atom   24 type  1   force =     0.00000000    0.00000000    0.00000000
     atom   25 type  1   force =     0.00000000    0.00000000    0.00000000
     atom   26 type  1   force =     0.00000000    0.00000000    0.00000000
     atom   27 type  1   force =     0.00000000    0.00000000    0.00000000
     atom   28 type  1   force =     0.00000000    0.00000000    0.00000000
     atom   29 type  1   force =     0.00000000    0.00000000    0.00000000
     atom   30 type  1   force =     0.00000000    0.00000000    0.00000000
     atom   31 type  1   force =     0.00000000    0.00000000    0.00000000
     atom   32 type  1   force =     0.00000000    0.00000000    0.00000000
     atom   33 type  1   force =     0.00000000    0.00000000    0.00000000
     atom   34 type  1   force =     0.00000000    0.00000000    0.00000000
     atom   35 type  1   force =     0.00000000    0.00000000    0.00000000
     atom   36 type  1   force =     0.00000000    0.00000000    0.00000000
     atom   37 type  1   force =     0.00000000    0.00000000    0.00000000
     atom   38 type  1   force =     0.00000000    0.00000000    0.00000000
     atom   39 type  1   force =     0.00000000    0.00000000    0.00000000
     atom   40 type  1   force =     0.00000000    0.00000000    0.00000000
     atom   41 type  1   force =     0.00000000    0.00000000    0.00000000
     atom   42 type  1   force =     0.00000000    0.00000000    0.00000000
     atom   43 type  1   force =     0.00000000    0.00000000    0.00000000
     atom   44 type  1   force =     0.00000000    0.00000000    0.00000000
     atom   45 type  1   force =     0.00000000    0.00000000    0.00000000
     atom   46 type  1   force =     0.00000000    0.00000000    0.00000000
     atom   47 type  1   force =     0.00000000    0.00000000    0.00000000
     atom   48 type  1   force =     0.00000000    0.00000000    0.00000000
     atom   49 type  1   force =     0.00000000    0.00000000    0.00000000
     atom   50 type  1   force =     0.00000000    0.00000000    0.00000000
     atom   51 type  1   force =     0.00000000    0.00000000    0.00000000
     atom   52 type  1   force =     0.00000000    0.00000000    0.00000000
     atom   53 type  1   force =     0.00000000    0.00000000    0.00000000
     atom   54 type  1   force =     0.00000000    0.00000000    0.00000000
     atom   55 type  1   force =     0.00000000    0.00000000    0.00000000
     atom   56 type  1   force =     0.00000000    0.00000000    0.00000000
     atom   57 type  1   force =     0.00000000    0.00000000    0.00000000
     atom   58 type  1   force =     0.00000000    0.00000000    0.00000000
     atom   59 type  1   force =     0.00000000    0.00000000    0.00000000
     atom   60 type  1   force =     0.00000000    0.00000000    0.00000000
[...]
     atom   65 type  2   force =     0.00000000    0.00000000    0.00000000
     atom   66 type  2   force =     0.00000000    0.00000000    0.00000000
     atom   67 type  2   force =     0.00000000    0.00000000    0.00000000
     atom   68 type  2   force =     0.00000000    0.00000000    0.00000000
     atom   69 type  2   force =     0.00000000    0.00000000    0.00000000
     atom   70 type  2   force =     0.00000000    0.00000000    0.00000000
     atom   71 type  2   force =     0.00000000    0.00000000    0.00000000
     atom   72 type  3   force =     0.00000000    0.00000000    0.00000000
     atom   73 type  3   force =     0.00000000    0.00000000    0.00000000
     atom   74 type  4   force =     0.00000000    0.00000000    0.00000000
     atom   75 type  4   force =     0.00000000    0.00000000    0.00000000
     atom   76 type  4   force =     0.00000000    0.00000000    0.00000000
     atom   77 type  4   force =     0.00000000    0.00000000    0.00000000
     atom   78 type  4   force =     0.00000000    0.00000000    0.00000000
     atom   79 type  4   force =     0.00000000    0.00000000    0.00000000
     The SCF correction term to forces
     atom    1 type  1   force =    -0.00037457   -0.00034229    0.00071824
     atom    2 type  1   force =     0.00038598   -0.00057422    0.00062721
     atom    3 type  1   force =    -0.00070687   -0.00043197   -0.00017330
     atom    4 type  1   force =     0.00071198   -0.00083987   -0.00012597
     atom    5 type  1   force =    -0.00033289   -0.00004206    0.00078323
     atom    6 type  1   force =     0.00030506   -0.00020105    0.00011810
     atom    7 type  1   force =    -0.00058897   -0.00003084   -0.00019647
     atom    8 type  1   force =     0.00056658   -0.00027162    0.00007230
     atom    9 type  1   force =     0.00019551    0.00022986    0.00086496
     atom   10 type  1   force =    -0.00019705    0.00064278    0.00028017
     atom   11 type  1   force =     0.00033059    0.00022164   -0.00026343
     atom   12 type  1   force =    -0.00032804    0.00102460   -0.00001171
     atom   13 type  1   force =     0.00014252   -0.00005921    0.00081744
     atom   14 type  1   force =    -0.00015260    0.00032009    0.00078952
     atom   15 type  1   force =     0.00022425   -0.00018291   -0.00023305
     atom   16 type  1   force =    -0.00021815    0.00050146   -0.00021032
     atom   17 type  1   force =    -0.00015637   -0.00079420    0.00045412
     atom   18 type  1   force =     0.00015023   -0.00008779    0.00088550
     atom   19 type  1   force =    -0.00013443   -0.00118600   -0.00003983
     atom   20 type  1   force =     0.00012614   -0.00008692   -0.00025418
     atom   21 type  1   force =    -0.00065093   -0.00017397    0.00026826
     atom   22 type  1   force =     0.00068741   -0.00007087    0.00063796
     atom   23 type  1   force =    -0.00104380   -0.00016397    0.00001711
     atom   24 type  1   force =     0.00106975   -0.00014872   -0.00014185
     atom   25 type  1   force =    -0.00062068    0.00036136    0.00068864
     atom   26 type  1   force =     0.00061300    0.00053631    0.00047523
     atom   27 type  1   force =    -0.00095216    0.00055857   -0.00017733
     atom   28 type  1   force =     0.00093968    0.00071213   -0.00008336
     atom   29 type  1   force =    -0.00009832   -0.00025962    0.00086100
     atom   30 type  1   force =     0.00010834    0.00052270    0.00073667
     atom   31 type  1   force =    -0.00001801   -0.00044054   -0.00024734
     atom   32 type  1   force =     0.00000900    0.00076610   -0.00019609
     atom   33 type  1   force =    -0.00032899   -0.00078809   -0.00059390
     atom   34 type  1   force =     0.00032771   -0.00018207   -0.00039664
     atom   35 type  1   force =    -0.00017201   -0.00038319   -0.00040289
     atom   36 type  1   force =     0.00018125   -0.00008842   -0.00058681
     atom   37 type  1   force =    -0.00105164   -0.00034990   -0.00056664
     atom   38 type  1   force =     0.00107471   -0.00059810   -0.00060195
     atom   39 type  1   force =    -0.00057926   -0.00019608   -0.00035228
     atom   40 type  1   force =     0.00060452   -0.00035264   -0.00020295
     atom   41 type  1   force =    -0.00050421    0.00028755   -0.00039848
     atom   42 type  1   force =     0.00050165    0.00067929   -0.00068325
     atom   43 type  1   force =    -0.00027393    0.00012058   -0.00058885
     atom   44 type  1   force =     0.00029165    0.00038532    0.00003703
     atom   45 type  1   force =     0.00018716   -0.00012872   -0.00041770
     atom   46 type  1   force =    -0.00020177    0.00107573   -0.00050731
     atom   47 type  1   force =     0.00011752   -0.00006064   -0.00066450
     atom   48 type  1   force =    -0.00011971    0.00060268   -0.00037428
     atom   49 type  1   force =     0.00022342   -0.00108748   -0.00055836
     atom   50 type  1   force =    -0.00022033    0.00009924   -0.00042712
     atom   51 type  1   force =     0.00013223   -0.00056705   -0.00042088
     atom   52 type  1   force =    -0.00014019    0.00008777   -0.00059083
     atom   53 type  1   force =    -0.00031246   -0.00073738   -0.00075272
     atom   54 type  1   force =     0.00029746   -0.00018343   -0.00039151
     atom   55 type  1   force =    -0.00019111   -0.00044891    0.00006991
     atom   56 type  1   force =     0.00017453   -0.00011343   -0.00058710
     atom   57 type  1   force =    -0.00102999    0.00062078   -0.00063971
     atom   58 type  1   force =     0.00103021    0.00036223   -0.00048691
     atom   59 type  1   force =    -0.00058556    0.00033019   -0.00013407
     atom   60 type  1   force =     0.00056378    0.00016503   -0.00044286
[...]
     atom   65 type  2   force =    -0.00000049    0.00001231    0.00016961
     atom   66 type  2   force =    -0.00000163   -0.00001123   -0.00013434
     atom   67 type  2   force =     0.00009320   -0.00006455   -0.00014783
     atom   68 type  2   force =    -0.00009383    0.00003750   -0.00015784
     atom   69 type  2   force =     0.00003529   -0.00002307   -0.00005067
     atom   70 type  2   force =    -0.00003433    0.00001473   -0.00005716
     atom   71 type  2   force =     0.00000116    0.00000610    0.00004427
     atom   72 type  3   force =     0.00000009    0.00001503    0.00021169
     atom   73 type  3   force =     0.00000321    0.00001049    0.00016241
     atom   74 type  4   force =    -0.00000366    0.00000425    0.00002112
     atom   75 type  4   force =     0.00000619   -0.00000116    0.00001989
     atom   76 type  4   force =     0.00001236   -0.00000808   -0.00001228
     atom   77 type  4   force =    -0.00001193    0.00000519   -0.00001381
     atom   78 type  4   force =     0.00001329   -0.00000683    0.00000680
     atom   79 type  4   force =    -0.00001272    0.00000737    0.00000455

     Total force =     0.030832     Total SCF correction =     0.006852
     SCF correction compared to forces is large: reduce conv_thr to get better values

     Computing stress (Cartesian axis) and pressure

     negative rho (up, down):  3.552E-02 0.000E+00
          total   stress  (Ry/bohr**3)                   (kbar)     P=     -306.74
  -0.00208488   0.00000078  -0.00000047         -306.70        0.11       -0.07
   0.00000078  -0.00208341   0.00000063            0.11     -306.48        0.09
  -0.00000047   0.00000063  -0.00208729           -0.07        0.09     -307.05

     kinetic stress (kbar)  17229.79     27.45     -1.23
                               27.45  17264.80     -3.42
                               -1.23     -3.42  17282.02

     local   stress (kbar)**********    755.95    -69.43
                              755.95**********   -256.38
                              -69.43   -256.381455641.55

     nonloc. stress (kbar)  -1883.82     -1.82      0.24
                               -1.82  -1886.06      0.72
                                0.24      0.72  -1942.45

     hartree stress (kbar) 756827.16   -284.43     27.07
                             -284.43 756473.63    104.01
                               27.07    104.01-680976.39

     exc-cor stress (kbar)  -8415.47     -1.32      0.10
                               -1.32  -8417.15      0.28
                                0.10      0.28  -8424.20

     corecor stress (kbar)    -81.18      0.66     -0.06
                                0.66    -80.28     -0.15
                               -0.06     -0.15    -81.91

     ewald   stress (kbar) 676611.35   -496.37     43.24
                             -496.37 675990.38    155.04
                               43.24    155.04-781805.66

     hubbard stress (kbar)      0.00      0.00      0.00
                                0.00      0.00      0.00
                                0.00      0.00      0.00

     DFT-D   stress (kbar)      0.00      0.00      0.00
                                0.00      0.00      0.00
                                0.00      0.00      0.00

     XDM     stress (kbar)      0.00      0.00      0.00
                                0.00      0.00      0.00
                                0.00      0.00      0.00

     dft-nl  stress (kbar)      0.00      0.00      0.00
                                0.00      0.00      0.00
                                0.00      0.00      0.00

     TS-vdW  stress (kbar)      0.00      0.00      0.00
                                0.00      0.00      0.00
                                0.00      0.00      0.00

     MDB     stress (kbar)      0.00      0.00      0.00
                                0.00      0.00      0.00
                                0.00      0.00      0.00

     3D-RISM stress (kbar)      0.00      0.00      0.00
                                0.00      0.00      0.00
                                0.00      0.00      0.00

     Writing all to output data dir ./tmp/Zn002_4x4x2_primitive_14Avacumn_bridgesite_upright_cross_ABN.save/ :
     XML data file, charge density, pseudopotentials, collected wavefunctions

     General routines

     Parallel routines

     PAW routines

   This run was terminated on:  19: 0:56  22Mar2025

   JOB DONE.
Note: The following floating-point exceptions are signalling: IEEE_DENORMAL
Note: The following floating-point exceptions are signalling: IEEE_DENORMAL
Note: The following floating-point exceptions are signalling: IEEE_DENORMAL
Note: The following floating-point exceptions are signalling: IEEE_DENORMAL
Note: The following floating-point exceptions are signalling: IEEE_DENORMAL
Note: The following floating-point exceptions are signalling: IEEE_DENORMAL
Note: The following floating-point exceptions are signalling: IEEE_DENORMAL