     Program PWSCF v.7.3.1 starts on 22Mar2025 at 12:50:12

     Waiting for input...
     Reading input from standard input
Warning: card &CELL ignored
Warning: card   CELL_DOFREE = 'ALL' ignored
Warning: card / ignored

     Current dimensions of program PWSCF are:
     Max number of different atomic species (ntypx) = 10
     Max number of k-points (npk) =  40000
     Max angular momentum in pseudopotentials (lmaxx) =  4
     file C.pbe-n-kjpaw_psl.1.0.0.UPF: wavefunction(s)  2S 2P renormalized

     R & G space division:  proc/nbgrp/npool/nimage =      16
     Subspace diagonalization in iterative solution of the eigenvalue problem:
     one sub-group per band group will be used

     Using Slab Decomposition

     bravais-lattice index     =            0
     lattice parameter (alat)  =      19.7617  a.u.
     unit-cell volume          =   15176.5939 (a.u.)^3
     number of atoms/cell      =           79
     number of atomic types    =            4
     number of electrons       =      1324.00
     number of Kohn-Sham states=          794
     kinetic-energy cutoff     =      30.0000  Ry
     charge density cutoff     =     120.0000  Ry
     scf convergence threshold =      7.3E-07
     mixing beta               =       0.7000
     number of iterations used =            8  plain     mixing
     Exchange-correlation= PBE
                           (   1   4   3   4   0   0   0)

     celldm(1)=  19.761696  celldm(2)=   0.000000  celldm(3)=   0.000000
     celldm(4)=   0.000000  celldm(5)=   0.000000  celldm(6)=   0.000000

     crystal axes: (cart. coord. in units of alat)
               a(1) = (   1.000000   0.000000   0.000000 )
               a(2) = (  -0.500000   0.866025   0.000000 )
               a(3) = (   0.000000   0.000000   2.270759 )

     reciprocal axes: (cart. coord. in units 2 pi/alat)
               b(1) = (  1.000000  0.577350 -0.000000 )
               b(2) = (  0.000000  1.154701  0.000000 )
               b(3) = (  0.000000 -0.000000  0.440381 )

     PseudoPot. # 1 for Zn read from file:
     /home/ys/qepseudo/SSSP_1.3.0_PBE_efficiency/Zn_pbe_v1.uspp.F.UPF
     MD5 check sum: df62231357ef9e81f77b2b3087fa5675
     Pseudo is Ultrasoft, Zval = 20.0
     Generated by new atomic code, or converted to UPF format
     Using radial grid of  943 points,  6 beta functions with:
                l(1) =   0
                l(2) =   0
                l(3) =   1
                l(4) =   1
                l(5) =   2
                l(6) =   2
     Q(r) pseudized with  8 coefficients,  rinner =    1.100   1.100   1.100
                                                       1.100   1.100

     PseudoPot. # 2 for C  read from file:
     /home/ys/qepseudo/SSSP_1.3.0_PBE_efficiency/C.pbe-n-kjpaw_psl.1.0.0.UPF
     MD5 check sum: 5d2aebdfa2cae82b50a7e79e9516da0f
     Pseudo is Projector augmented-wave + core cor, Zval =  4.0
     Generated using "atomic" code by A. Dal Corso  v.5.1
     Shape of augmentation charge: PSQ
     Using radial grid of 1073 points,  4 beta functions with:
                l(1) =   0
                l(2) =   0
                l(3) =   1
                l(4) =   1
     Q(r) pseudized with 0 coefficients

     PseudoPot. # 3 for N  read from file:
     /home/ys/qepseudo/SSSP_1.3.0_PBE_efficiency/N.pbe-n-radius_5.UPF
     MD5 check sum: 16739722b17309cd8fe442a2ace49922
     Pseudo is Ultrasoft + core correction, Zval =  5.0
     Generated using "atomic" code by A. Dal Corso  v.5.1
     Using radial grid of 1085 points,  4 beta functions with:
                l(1) =   0
                l(2) =   0
                l(3) =   1
                l(4) =   1
     Q(r) pseudized with 0 coefficients

     PseudoPot. # 4 for H  read from file:
     /home/ys/qepseudo/SSSP_1.3.0_PBE_efficiency/H.pbe-rrkjus_psl.1.0.0.UPF
     MD5 check sum: f52b6d4d1c606e5624b1dc7b2218f220
     Pseudo is Ultrasoft, Zval =  1.0
     Generated using "atomic" code by A. Dal Corso  v.5.1
     Using radial grid of  929 points,  2 beta functions with:
                l(1) =   0
                l(2) =   0
     Q(r) pseudized with 0 coefficients

     atomic species   valence    mass     pseudopotential
     Zn               20.00    65.38000     Zn( 1.00)
     C                 4.00    12.01070     C ( 1.00)
     N                 5.00    14.00670     N ( 1.00)
     H                 1.00     1.00800     H ( 1.00)

     No symmetry found

                                    s                        frac. trans.

      isym =  1     identity

 cryst.   s( 1) = (     1          0          0      )
                  (     0          1          0      )
                  (     0          0          1      )

 cart.    s( 1) = (  1.0000000  0.0000000  0.0000000 )
                  (  0.0000000  1.0000000  0.0000000 )
                  (  0.0000000  0.0000000  1.0000000 )

   Cartesian axes

     site n.     atom                  positions (alat units)
         1        Zn     tau(   1) = (  -0.0000000   0.1443376   0.1164999  )
         2        Zn     tau(   2) = (   0.5000000   0.1443376   0.1164999  )
         3        Zn     tau(   3) = (   0.0001063   0.1443772   0.5902127  )
         4        Zn     tau(   4) = (   0.4998958   0.1443643   0.5917156  )
         5        Zn     tau(   5) = (  -0.1250000   0.3608439   0.1164999  )
         6        Zn     tau(   6) = (   0.3750000   0.3608439   0.1164999  )
         7        Zn     tau(   7) = (  -0.1249761   0.3609302   0.5908726  )
         8        Zn     tau(   8) = (   0.3749642   0.3608477   0.5913644  )
         9        Zn     tau(   9) = (  -0.2500000   0.5773503   0.1164999  )
        10        Zn     tau(  10) = (   0.2500000   0.5773503   0.1164999  )
        11        Zn     tau(  11) = (  -0.2499911   0.5773738   0.5915504  )
        12        Zn     tau(  12) = (   0.2499824   0.5772583   0.5907382  )
        13        Zn     tau(  13) = (  -0.3750000   0.7938566   0.1164999  )
        14        Zn     tau(  14) = (   0.1250000   0.7938566   0.1164999  )
        15        Zn     tau(  15) = (  -0.3749161   0.7938269   0.5909604  )
        16        Zn     tau(  16) = (   0.1249053   0.7937898   0.5911170  )
        17        Zn     tau(  17) = (   0.2500000   0.1443376   0.1164999  )
        18        Zn     tau(  18) = (   0.7500000   0.1443376   0.1164999  )
        19        Zn     tau(  19) = (   0.2499566   0.1443139   0.5910485  )
        20        Zn     tau(  20) = (   0.7500401   0.1444360   0.5909256  )
        21        Zn     tau(  21) = (   0.1250000   0.3608439   0.1164999  )
        22        Zn     tau(  22) = (   0.6250000   0.3608439   0.1164999  )
        23        Zn     tau(  23) = (   0.1249684   0.3608327   0.5904686  )
        24        Zn     tau(  24) = (   0.6250220   0.3609386   0.5917101  )
        25        Zn     tau(  25) = (  -0.0000000   0.5773503   0.1164999  )
        26        Zn     tau(  26) = (   0.5000000   0.5773503   0.1164999  )
        27        Zn     tau(  27) = (  -0.0000983   0.5773031   0.5910657  )
        28        Zn     tau(  28) = (   0.5000885   0.5773473   0.5912976  )
        29        Zn     tau(  29) = (  -0.1250000   0.7938566   0.1164999  )
        30        Zn     tau(  30) = (   0.3750000   0.7938566   0.1164999  )
        31        Zn     tau(  31) = (  -0.1251014   0.7937984   0.5915674  )
        32        Zn     tau(  32) = (   0.3751324   0.7938157   0.5904624  )
        33        Zn     tau(  33) = (   0.1250000   0.0721688   0.3494996  )
        34        Zn     tau(  34) = (   0.6250000   0.0721688   0.3494996  )
        35        Zn     tau(  35) = (   0.1248091   0.0718530   0.8330921  )
        36        Zn     tau(  36) = (   0.6250782   0.0719029   0.8329720  )
        37        Zn     tau(  37) = (   0.0000000   0.2886751   0.3494996  )
        38        Zn     tau(  38) = (   0.5000000   0.2886751   0.3494996  )
        39        Zn     tau(  39) = (  -0.0001233   0.2885465   0.8326802  )
        40        Zn     tau(  40) = (   0.5001664   0.2886112   0.8304998  )
        41        Zn     tau(  41) = (  -0.1250000   0.5051815   0.3494996  )
        42        Zn     tau(  42) = (   0.3750000   0.5051815   0.3494996  )
        43        Zn     tau(  43) = (  -0.1251737   0.5050546   0.8330493  )
        44        Zn     tau(  44) = (   0.3750127   0.5053062   0.8324313  )
        45        Zn     tau(  45) = (  -0.2500000   0.7216878   0.3494996  )
        46        Zn     tau(  46) = (   0.2500000   0.7216878   0.3494996  )
        47        Zn     tau(  47) = (  -0.2500934   0.7215858   0.8334125  )
        48        Zn     tau(  48) = (   0.2500569   0.7216264   0.8329478  )
        49        Zn     tau(  49) = (   0.3750000   0.0721688   0.3494996  )
        50        Zn     tau(  50) = (   0.8750000   0.0721688   0.3494996  )
        51        Zn     tau(  51) = (   0.3749592   0.0719990   0.8333365  )
        52        Zn     tau(  52) = (   0.8750264   0.0720212   0.8326466  )
        53        Zn     tau(  53) = (   0.2500000   0.2886751   0.3494996  )
        54        Zn     tau(  54) = (   0.7500000   0.2886751   0.3494996  )
        55        Zn     tau(  55) = (   0.2496261   0.2881738   0.8269236  )
        56        Zn     tau(  56) = (   0.7501031   0.2884453   0.8327565  )
        57        Zn     tau(  57) = (   0.1250000   0.5051815   0.3494996  )
        58        Zn     tau(  58) = (   0.6250000   0.5051815   0.3494996  )
        59        Zn     tau(  59) = (   0.1247966   0.5052991   0.8292882  )
        60        Zn     tau(  60) = (   0.6249849   0.5051435   0.8337009  )
[...]
        65        C      tau(  65) = (   0.5001245   0.6512489   1.5818856  )
        66        C      tau(  66) = (   0.4503748   0.5880873   1.4717825  )
        67        C      tau(  67) = (   0.5225991   0.4943651   1.4071785  )
        68        C      tau(  68) = (   0.3264123   0.6162507   1.4267241  )
        69        C      tau(  69) = (   0.2764625   0.5530442   1.3215455  )
        70        C      tau(  70) = (   0.4730439   0.4317765   1.3012616  )
        71        C      tau(  71) = (   0.3480239   0.4581219   1.2574389  )
        72        N      tau(  72) = (   0.5407786   0.7032875   1.6727142  )
        73        N      tau(  73) = (   0.2953490   0.3888539   1.1587312  )
        74        H      tau(  74) = (   0.2166512   0.4247776   1.1137495  )
        75        H      tau(  75) = (   0.3555477   0.3399550   1.0995347  )
        76        H      tau(  76) = (   0.6188986   0.4715322   1.4409974  )
        77        H      tau(  77) = (   0.2691854   0.6885226   1.4761519  )
        78        H      tau(  78) = (   0.1794203   0.5753496   1.2890370  )
        79        H      tau(  79) = (   0.5304886   0.3589262   1.2526284  )

   Crystallographic axes

     site n.     atom                  positions (cryst. coord.)
         1        Zn     tau(   1) = (  0.0833333  0.1666667  0.0513044  )
         2        Zn     tau(   2) = (  0.5833333  0.1666667  0.0513044  )
         3        Zn     tau(   3) = (  0.0834625  0.1667124  0.2599187  )
         4        Zn     tau(   4) = (  0.5832446  0.1666976  0.2605806  )
[...]
     atom   55 type  1   force =     0.00000000    0.00000000    0.00000000
     atom   56 type  1   force =     0.00000000    0.00000000    0.00000000
     atom   57 type  1   force =     0.00000000    0.00000000    0.00000000
     atom   58 type  1   force =     0.00000000    0.00000000    0.00000000
     atom   59 type  1   force =     0.00000000    0.00000000    0.00000000
     atom   60 type  1   force =     0.00000000    0.00000000    0.00000000
[...]
     atom   65 type  2   force =     0.00418685    0.00563101    0.01192889
     atom   66 type  2   force =     0.00104889    0.00038590   -0.00458543
     atom   67 type  2   force =    -0.00280354   -0.00386952    0.00065979
     atom   68 type  2   force =    -0.00141034   -0.00375333   -0.00431739
     atom   69 type  2   force =     0.00257599    0.00219592    0.00214615
     atom   70 type  2   force =     0.00111383    0.00359944   -0.00103979
     atom   71 type  2   force =     0.00002532    0.00036554   -0.00071115
     atom   72 type  3   force =     0.00419269    0.00535247    0.00944363
     atom   73 type  3   force =    -0.00267422   -0.00503436    0.00256705
     atom   74 type  4   force =     0.00000000    0.00000000    0.00000000
     atom   75 type  4   force =     0.00000000    0.00000000    0.00000000
     atom   76 type  4   force =     0.00000000    0.00000000    0.00000000
     atom   77 type  4   force =     0.00000000    0.00000000    0.00000000
     atom   78 type  4   force =     0.00000000    0.00000000    0.00000000
     atom   79 type  4   force =     0.00000000    0.00000000    0.00000000
     The Hubbard contrib.    to forces
     atom    1 type  1   force =     0.00000000    0.00000000    0.00000000
     atom    2 type  1   force =     0.00000000    0.00000000    0.00000000
     atom    3 type  1   force =     0.00000000    0.00000000    0.00000000
     atom    4 type  1   force =     0.00000000    0.00000000    0.00000000
     atom    5 type  1   force =     0.00000000    0.00000000    0.00000000
     atom    6 type  1   force =     0.00000000    0.00000000    0.00000000
     atom    7 type  1   force =     0.00000000    0.00000000    0.00000000
     atom    8 type  1   force =     0.00000000    0.00000000    0.00000000
     atom    9 type  1   force =     0.00000000    0.00000000    0.00000000
     atom   10 type  1   force =     0.00000000    0.00000000    0.00000000
     atom   11 type  1   force =     0.00000000    0.00000000    0.00000000
     atom   12 type  1   force =     0.00000000    0.00000000    0.00000000
     atom   13 type  1   force =     0.00000000    0.00000000    0.00000000
     atom   14 type  1   force =     0.00000000    0.00000000    0.00000000
     atom   15 type  1   force =     0.00000000    0.00000000    0.00000000
     atom   16 type  1   force =     0.00000000    0.00000000    0.00000000
     atom   17 type  1   force =     0.00000000    0.00000000    0.00000000
     atom   18 type  1   force =     0.00000000    0.00000000    0.00000000
     atom   19 type  1   force =     0.00000000    0.00000000    0.00000000
     atom   20 type  1   force =     0.00000000    0.00000000    0.00000000
     atom   21 type  1   force =     0.00000000    0.00000000    0.00000000
     atom   22 type  1   force =     0.00000000    0.00000000    0.00000000
     atom   23 type  1   force =     0.00000000    0.00000000    0.00000000
     atom   24 type  1   force =     0.00000000    0.00000000    0.00000000
     atom   25 type  1   force =     0.00000000    0.00000000    0.00000000
     atom   26 type  1   force =     0.00000000    0.00000000    0.00000000
     atom   27 type  1   force =     0.00000000    0.00000000    0.00000000
     atom   28 type  1   force =     0.00000000    0.00000000    0.00000000
     atom   29 type  1   force =     0.00000000    0.00000000    0.00000000
     atom   30 type  1   force =     0.00000000    0.00000000    0.00000000
     atom   31 type  1   force =     0.00000000    0.00000000    0.00000000
     atom   32 type  1   force =     0.00000000    0.00000000    0.00000000
     atom   33 type  1   force =     0.00000000    0.00000000    0.00000000
     atom   34 type  1   force =     0.00000000    0.00000000    0.00000000
     atom   35 type  1   force =     0.00000000    0.00000000    0.00000000
     atom   36 type  1   force =     0.00000000    0.00000000    0.00000000
     atom   37 type  1   force =     0.00000000    0.00000000    0.00000000
     atom   38 type  1   force =     0.00000000    0.00000000    0.00000000
     atom   39 type  1   force =     0.00000000    0.00000000    0.00000000
     atom   40 type  1   force =     0.00000000    0.00000000    0.00000000
     atom   41 type  1   force =     0.00000000    0.00000000    0.00000000
     atom   42 type  1   force =     0.00000000    0.00000000    0.00000000
     atom   43 type  1   force =     0.00000000    0.00000000    0.00000000
     atom   44 type  1   force =     0.00000000    0.00000000    0.00000000
     atom   45 type  1   force =     0.00000000    0.00000000    0.00000000
     atom   46 type  1   force =     0.00000000    0.00000000    0.00000000
     atom   47 type  1   force =     0.00000000    0.00000000    0.00000000
     atom   48 type  1   force =     0.00000000    0.00000000    0.00000000
     atom   49 type  1   force =     0.00000000    0.00000000    0.00000000
     atom   50 type  1   force =     0.00000000    0.00000000    0.00000000
     atom   51 type  1   force =     0.00000000    0.00000000    0.00000000
     atom   52 type  1   force =     0.00000000    0.00000000    0.00000000
     atom   53 type  1   force =     0.00000000    0.00000000    0.00000000
     atom   54 type  1   force =     0.00000000    0.00000000    0.00000000
     atom   55 type  1   force =     0.00000000    0.00000000    0.00000000
     atom   56 type  1   force =     0.00000000    0.00000000    0.00000000
     atom   57 type  1   force =     0.00000000    0.00000000    0.00000000
     atom   58 type  1   force =     0.00000000    0.00000000    0.00000000
     atom   59 type  1   force =     0.00000000    0.00000000    0.00000000
     atom   60 type  1   force =     0.00000000    0.00000000    0.00000000
[...]
     atom   65 type  2   force =     0.00000000    0.00000000    0.00000000
     atom   66 type  2   force =     0.00000000    0.00000000    0.00000000
     atom   67 type  2   force =     0.00000000    0.00000000    0.00000000
     atom   68 type  2   force =     0.00000000    0.00000000    0.00000000
     atom   69 type  2   force =     0.00000000    0.00000000    0.00000000
     atom   70 type  2   force =     0.00000000    0.00000000    0.00000000
     atom   71 type  2   force =     0.00000000    0.00000000    0.00000000
     atom   72 type  3   force =     0.00000000    0.00000000    0.00000000
     atom   73 type  3   force =     0.00000000    0.00000000    0.00000000
     atom   74 type  4   force =     0.00000000    0.00000000    0.00000000
     atom   75 type  4   force =     0.00000000    0.00000000    0.00000000
     atom   76 type  4   force =     0.00000000    0.00000000    0.00000000
     atom   77 type  4   force =     0.00000000    0.00000000    0.00000000
     atom   78 type  4   force =     0.00000000    0.00000000    0.00000000
     atom   79 type  4   force =     0.00000000    0.00000000    0.00000000
     The SCF correction term to forces
     atom    1 type  1   force =    -0.00021752   -0.00018398    0.00078174
     atom    2 type  1   force =     0.00023411   -0.00051701    0.00070066
     atom    3 type  1   force =    -0.00019695    0.00019574   -0.00035443
     atom    4 type  1   force =     0.00021918   -0.00068913   -0.00016156
     atom    5 type  1   force =    -0.00013584   -0.00008037    0.00079865
     atom    6 type  1   force =     0.00014015   -0.00029676    0.00022659
     atom    7 type  1   force =     0.00001837   -0.00011103   -0.00031275
     atom    8 type  1   force =    -0.00002012   -0.00069368    0.00028544
     atom    9 type  1   force =     0.00027933    0.00019409    0.00076421
     atom   10 type  1   force =    -0.00026828    0.00047597    0.00032039
     atom   11 type  1   force =     0.00073434    0.00011697   -0.00044689
     atom   12 type  1   force =    -0.00075365    0.00035162    0.00009033
     atom   13 type  1   force =     0.00018030    0.00013028    0.00074728
     atom   14 type  1   force =    -0.00019520    0.00028725    0.00077546
     atom   15 type  1   force =     0.00052459    0.00041518   -0.00048556
     atom   16 type  1   force =    -0.00052308    0.00040525   -0.00035498
     atom   17 type  1   force =    -0.00016009   -0.00062385    0.00063871
     atom   18 type  1   force =     0.00014594   -0.00006935    0.00083286
     atom   19 type  1   force =    -0.00009011   -0.00059241   -0.00009114
     atom   20 type  1   force =     0.00007121    0.00009879   -0.00042220
     atom   21 type  1   force =    -0.00058003   -0.00023639    0.00046662
     atom   22 type  1   force =     0.00057493   -0.00015552    0.00057323
     atom   23 type  1   force =    -0.00083151   -0.00033489    0.00011199
     atom   24 type  1   force =     0.00082979   -0.00049786   -0.00016140
     atom   25 type  1   force =    -0.00047595    0.00024246    0.00073386
     atom   26 type  1   force =     0.00046957    0.00042293    0.00036283
     atom   27 type  1   force =    -0.00058068    0.00018968   -0.00024750
     atom   28 type  1   force =     0.00058998    0.00027583   -0.00011033
     atom   29 type  1   force =    -0.00005102   -0.00011403    0.00086209
     atom   30 type  1   force =     0.00006825    0.00052045    0.00062756
     atom   31 type  1   force =     0.00014239   -0.00004966   -0.00043078
     atom   32 type  1   force =    -0.00014658    0.00089766   -0.00039116
     atom   33 type  1   force =    -0.00010475   -0.00025675   -0.00059449
     atom   34 type  1   force =     0.00009578   -0.00013530   -0.00049939
     atom   35 type  1   force =     0.00015464    0.00030638   -0.00056180
     atom   36 type  1   force =    -0.00016220    0.00005231   -0.00063678
     atom   37 type  1   force =    -0.00060620   -0.00027062   -0.00046188
     atom   38 type  1   force =     0.00066218   -0.00079434   -0.00064191
     atom   39 type  1   force =    -0.00002631    0.00006192   -0.00063876
     atom   40 type  1   force =     0.00002758   -0.00037049   -0.00028437
     atom   41 type  1   force =    -0.00011569    0.00012813   -0.00047661
     atom   42 type  1   force =     0.00011741    0.00025657   -0.00085767
     atom   43 type  1   force =     0.00020718   -0.00010794   -0.00063519
     atom   44 type  1   force =    -0.00019210   -0.00025030    0.00008689
     atom   45 type  1   force =     0.00039149    0.00014701   -0.00059569
     atom   46 type  1   force =    -0.00044289    0.00091466   -0.00072708
     atom   47 type  1   force =     0.00037682    0.00015376   -0.00059378
     atom   48 type  1   force =    -0.00036442    0.00014620   -0.00028395
     atom   49 type  1   force =     0.00008487   -0.00074056   -0.00050262
     atom   50 type  1   force =    -0.00007537    0.00033792   -0.00059783
     atom   51 type  1   force =     0.00006531   -0.00002503   -0.00063785
     atom   52 type  1   force =    -0.00005675    0.00037976   -0.00057154
     atom   53 type  1   force =    -0.00046514   -0.00081213   -0.00061759
     atom   54 type  1   force =     0.00041392   -0.00024238   -0.00049865
     atom   55 type  1   force =    -0.00017605   -0.00022865   -0.00027418
     atom   56 type  1   force =     0.00017458   -0.00008648   -0.00062569
     atom   57 type  1   force =    -0.00100763    0.00024936   -0.00059283
     atom   58 type  1   force =     0.00100504    0.00015230   -0.00075856
     atom   59 type  1   force =    -0.00035061   -0.00013913   -0.00033057
     atom   60 type  1   force =     0.00030071   -0.00021335   -0.00025847
[...]
     atom   65 type  2   force =     0.00010536    0.00013472    0.00025557
     atom   66 type  2   force =    -0.00007699   -0.00009948   -0.00015543
     atom   67 type  2   force =     0.00003516   -0.00014561   -0.00013715
     atom   68 type  2   force =    -0.00016388   -0.00001794   -0.00011331
     atom   69 type  2   force =     0.00000837   -0.00002697   -0.00001848
     atom   70 type  2   force =    -0.00003153   -0.00000346   -0.00001340
     atom   71 type  2   force =     0.00002561    0.00002691    0.00004596
     atom   72 type  3   force =     0.00013007    0.00016713    0.00032162
     atom   73 type  3   force =     0.00002982    0.00003768    0.00006305
     atom   74 type  4   force =    -0.00000850    0.00000613    0.00000061
     atom   75 type  4   force =     0.00000879   -0.00000460   -0.00000036
     atom   76 type  4   force =     0.00000388   -0.00001648   -0.00001224
     atom   77 type  4   force =    -0.00001895   -0.00000159   -0.00000940
     atom   78 type  4   force =     0.00000980   -0.00000393    0.00000527
     atom   79 type  4   force =    -0.00000887    0.00000769    0.00000818

     Total force =     0.030373     Total SCF correction =     0.006221
     SCF correction compared to forces is large: reduce conv_thr to get better values

     Computing stress (Cartesian axis) and pressure

     negative rho (up, down):  3.494E-02 0.000E+00
          total   stress  (Ry/bohr**3)                   (kbar)     P=     -306.74
  -0.00208446   0.00000078   0.00000005         -306.64        0.12        0.01
   0.00000078  -0.00208385  -0.00000011            0.12     -306.55       -0.02
   0.00000005  -0.00000011  -0.00208718            0.01       -0.02     -307.04

     kinetic stress (kbar)  17221.85     14.90    -20.36
                               14.90  17244.57    -34.43
                              -20.36    -34.43  17310.03

     local   stress (kbar)**********    160.92   -830.17
                              160.92**********  -1299.06
                             -830.17  -1299.061460472.89

     nonloc. stress (kbar)  -1882.88     -0.38      2.23
                               -0.38  -1884.01      3.46
                                2.23      3.46  -1945.64

     hartree stress (kbar) 758709.56    -44.05    326.33
                              -44.05 758536.11    506.25
                              326.33    506.25-683236.55

     exc-cor stress (kbar)  -8415.01     -0.62      1.09
                               -0.62  -8416.03      1.82
                                1.09      1.82  -8425.73

     corecor stress (kbar)    -81.26      0.35     -0.50
                                0.35    -80.78     -0.86
                               -0.50     -0.86    -81.07

     ewald   stress (kbar) 678636.37   -131.00    521.39
                             -131.00 678304.14    822.80
                              521.39    822.80-784400.97

     hubbard stress (kbar)      0.00      0.00      0.00
                                0.00      0.00      0.00
                                0.00      0.00      0.00

     DFT-D   stress (kbar)      0.00      0.00      0.00
                                0.00      0.00      0.00
                                0.00      0.00      0.00

     XDM     stress (kbar)      0.00      0.00      0.00
                                0.00      0.00      0.00
                                0.00      0.00      0.00

     dft-nl  stress (kbar)      0.00      0.00      0.00
                                0.00      0.00      0.00
                                0.00      0.00      0.00

     TS-vdW  stress (kbar)      0.00      0.00      0.00
                                0.00      0.00      0.00
                                0.00      0.00      0.00

     MDB     stress (kbar)      0.00      0.00      0.00
                                0.00      0.00      0.00
                                0.00      0.00      0.00

     3D-RISM stress (kbar)      0.00      0.00      0.00
                                0.00      0.00      0.00
                                0.00      0.00      0.00

     Writing all to output data dir ./tmp/Zn002_4x4x2_primitive_14Avacumn_bridgesite_tilted_cross_ABN.save/ :
     XML data file, charge density, pseudopotentials, collected wavefunctions

     General routines

     Parallel routines

     PAW routines

   This run was terminated on:  16:30:17  22Mar2025

   JOB DONE.
Note: The following floating-point exceptions are signalling: IEEE_DENORMAL
Note: The following floating-point exceptions are signalling: IEEE_DENORMAL
Note: The following floating-point exceptions are signalling: IEEE_DENORMAL
Note: The following floating-point exceptions are signalling: IEEE_DENORMAL
Note: The following floating-point exceptions are signalling: IEEE_DENORMAL