     Program PWSCF v.7.3.1 starts on 22Mar2025 at 12:50:25

     Waiting for input...
     Reading input from standard input
Warning: card &CELL ignored
Warning: card   CELL_DOFREE = 'ALL' ignored
Warning: card / ignored

     Current dimensions of program PWSCF are:
     Max number of different atomic species (ntypx) = 10
     Max number of k-points (npk) =  40000
     Max angular momentum in pseudopotentials (lmaxx) =  4
     file C.pbe-n-kjpaw_psl.1.0.0.UPF: wavefunction(s)  2S 2P renormalized

     R & G space division:  proc/nbgrp/npool/nimage =      16
     Subspace diagonalization in iterative solution of the eigenvalue problem:
     one sub-group per band group will be used

     Using Slab Decomposition

     bravais-lattice index     =            0
     lattice parameter (alat)  =      19.7617  a.u.
     unit-cell volume          =   15176.5939 (a.u.)^3
     number of atoms/cell      =           79
     number of atomic types    =            4
     number of electrons       =      1324.00
     number of Kohn-Sham states=          794
     kinetic-energy cutoff     =      30.0000  Ry
     charge density cutoff     =     120.0000  Ry
     scf convergence threshold =      7.3E-07
     mixing beta               =       0.7000
     number of iterations used =            8  plain     mixing
     Exchange-correlation= PBE
                           (   1   4   3   4   0   0   0)

     celldm(1)=  19.761696  celldm(2)=   0.000000  celldm(3)=   0.000000
     celldm(4)=   0.000000  celldm(5)=   0.000000  celldm(6)=   0.000000

     crystal axes: (cart. coord. in units of alat)
               a(1) = (   1.000000   0.000000   0.000000 )
               a(2) = (  -0.500000   0.866025   0.000000 )
               a(3) = (   0.000000   0.000000   2.270759 )

     reciprocal axes: (cart. coord. in units 2 pi/alat)
               b(1) = (  1.000000  0.577350 -0.000000 )
               b(2) = (  0.000000  1.154701  0.000000 )
               b(3) = (  0.000000 -0.000000  0.440381 )

     PseudoPot. # 1 for Zn read from file:
     /home/ys/qepseudo/SSSP_1.3.0_PBE_efficiency/Zn_pbe_v1.uspp.F.UPF
     MD5 check sum: df62231357ef9e81f77b2b3087fa5675
     Pseudo is Ultrasoft, Zval = 20.0
     Generated by new atomic code, or converted to UPF format
     Using radial grid of  943 points,  6 beta functions with:
                l(1) =   0
                l(2) =   0
                l(3) =   1
                l(4) =   1
                l(5) =   2
                l(6) =   2
     Q(r) pseudized with  8 coefficients,  rinner =    1.100   1.100   1.100
                                                       1.100   1.100

     PseudoPot. # 2 for C  read from file:
     /home/ys/qepseudo/SSSP_1.3.0_PBE_efficiency/C.pbe-n-kjpaw_psl.1.0.0.UPF
     MD5 check sum: 5d2aebdfa2cae82b50a7e79e9516da0f
     Pseudo is Projector augmented-wave + core cor, Zval =  4.0
     Generated using "atomic" code by A. Dal Corso  v.5.1
     Shape of augmentation charge: PSQ
     Using radial grid of 1073 points,  4 beta functions with:
                l(1) =   0
                l(2) =   0
                l(3) =   1
                l(4) =   1
     Q(r) pseudized with 0 coefficients

     PseudoPot. # 3 for N  read from file:
     /home/ys/qepseudo/SSSP_1.3.0_PBE_efficiency/N.pbe-n-radius_5.UPF
     MD5 check sum: 16739722b17309cd8fe442a2ace49922
     Pseudo is Ultrasoft + core correction, Zval =  5.0
     Generated using "atomic" code by A. Dal Corso  v.5.1
     Using radial grid of 1085 points,  4 beta functions with:
                l(1) =   0
                l(2) =   0
                l(3) =   1
                l(4) =   1
     Q(r) pseudized with 0 coefficients

     PseudoPot. # 4 for H  read from file:
     /home/ys/qepseudo/SSSP_1.3.0_PBE_efficiency/H.pbe-rrkjus_psl.1.0.0.UPF
     MD5 check sum: f52b6d4d1c606e5624b1dc7b2218f220
     Pseudo is Ultrasoft, Zval =  1.0
     Generated using "atomic" code by A. Dal Corso  v.5.1
     Using radial grid of  929 points,  2 beta functions with:
                l(1) =   0
                l(2) =   0
     Q(r) pseudized with 0 coefficients

     atomic species   valence    mass     pseudopotential
     Zn               20.00    65.38000     Zn( 1.00)
     C                 4.00    12.01070     C ( 1.00)
     N                 5.00    14.00670     N ( 1.00)
     H                 1.00     1.00800     H ( 1.00)

     No symmetry found

                                    s                        frac. trans.

      isym =  1     identity

 cryst.   s( 1) = (     1          0          0      )
                  (     0          1          0      )
                  (     0          0          1      )

 cart.    s( 1) = (  1.0000000  0.0000000  0.0000000 )
                  (  0.0000000  1.0000000  0.0000000 )
                  (  0.0000000  0.0000000  1.0000000 )

   Cartesian axes

     site n.     atom                  positions (alat units)
         1        Zn     tau(   1) = (  -0.0000000   0.1443376   0.1164999  )
         2        Zn     tau(   2) = (   0.5000000   0.1443376   0.1164999  )
         3        Zn     tau(   3) = (   0.0001063   0.1443772   0.5902127  )
         4        Zn     tau(   4) = (   0.4998958   0.1443643   0.5917156  )
         5        Zn     tau(   5) = (  -0.1250000   0.3608439   0.1164999  )
         6        Zn     tau(   6) = (   0.3750000   0.3608439   0.1164999  )
         7        Zn     tau(   7) = (  -0.1249761   0.3609302   0.5908726  )
         8        Zn     tau(   8) = (   0.3749642   0.3608477   0.5913644  )
         9        Zn     tau(   9) = (  -0.2500000   0.5773503   0.1164999  )
        10        Zn     tau(  10) = (   0.2500000   0.5773503   0.1164999  )
        11        Zn     tau(  11) = (  -0.2499911   0.5773738   0.5915504  )
        12        Zn     tau(  12) = (   0.2499824   0.5772583   0.5907382  )
        13        Zn     tau(  13) = (  -0.3750000   0.7938566   0.1164999  )
        14        Zn     tau(  14) = (   0.1250000   0.7938566   0.1164999  )
        15        Zn     tau(  15) = (  -0.3749161   0.7938269   0.5909604  )
        16        Zn     tau(  16) = (   0.1249053   0.7937898   0.5911170  )
        17        Zn     tau(  17) = (   0.2500000   0.1443376   0.1164999  )
        18        Zn     tau(  18) = (   0.7500000   0.1443376   0.1164999  )
        19        Zn     tau(  19) = (   0.2499566   0.1443139   0.5910485  )
        20        Zn     tau(  20) = (   0.7500401   0.1444360   0.5909256  )
        21        Zn     tau(  21) = (   0.1250000   0.3608439   0.1164999  )
        22        Zn     tau(  22) = (   0.6250000   0.3608439   0.1164999  )
        23        Zn     tau(  23) = (   0.1249684   0.3608327   0.5904686  )
        24        Zn     tau(  24) = (   0.6250220   0.3609386   0.5917101  )
        25        Zn     tau(  25) = (  -0.0000000   0.5773503   0.1164999  )
        26        Zn     tau(  26) = (   0.5000000   0.5773503   0.1164999  )
        27        Zn     tau(  27) = (  -0.0000983   0.5773031   0.5910657  )
        28        Zn     tau(  28) = (   0.5000885   0.5773473   0.5912976  )
        29        Zn     tau(  29) = (  -0.1250000   0.7938566   0.1164999  )
        30        Zn     tau(  30) = (   0.3750000   0.7938566   0.1164999  )
        31        Zn     tau(  31) = (  -0.1251014   0.7937984   0.5915674  )
        32        Zn     tau(  32) = (   0.3751324   0.7938157   0.5904624  )
        33        Zn     tau(  33) = (   0.1250000   0.0721688   0.3494996  )
        34        Zn     tau(  34) = (   0.6250000   0.0721688   0.3494996  )
        35        Zn     tau(  35) = (   0.1246193   0.0719582   0.8323171  )
        36        Zn     tau(  36) = (   0.6247863   0.0721058   0.8327879  )
        37        Zn     tau(  37) = (   0.0000000   0.2886751   0.3494996  )
        38        Zn     tau(  38) = (   0.5000000   0.2886751   0.3494996  )
        39        Zn     tau(  39) = (  -0.0004141   0.2885605   0.8324874  )
        40        Zn     tau(  40) = (   0.4998445   0.2884781   0.8325306  )
        41        Zn     tau(  41) = (  -0.1250000   0.5051815   0.3494996  )
        42        Zn     tau(  42) = (   0.3750000   0.5051815   0.3494996  )
        43        Zn     tau(  43) = (  -0.1253003   0.5051007   0.8330462  )
        44        Zn     tau(  44) = (   0.3745658   0.5052859   0.8281149  )
        45        Zn     tau(  45) = (  -0.2500000   0.7216878   0.3494996  )
        46        Zn     tau(  46) = (   0.2500000   0.7216878   0.3494996  )
        47        Zn     tau(  47) = (  -0.2502782   0.7215646   0.8329798  )
        48        Zn     tau(  48) = (   0.2496056   0.7217398   0.8326485  )
        49        Zn     tau(  49) = (   0.3750000   0.0721688   0.3494996  )
        50        Zn     tau(  50) = (   0.8750000   0.0721688   0.3494996  )
        51        Zn     tau(  51) = (   0.3747307   0.0719485   0.8330090  )
        52        Zn     tau(  52) = (   0.8747167   0.0720990   0.8321645  )
        53        Zn     tau(  53) = (   0.2500000   0.2886751   0.3494996  )
        54        Zn     tau(  54) = (   0.7500000   0.2886751   0.3494996  )
        55        Zn     tau(  55) = (   0.2494612   0.2883582   0.8293599  )
        56        Zn     tau(  56) = (   0.7498011   0.2885935   0.8327814  )
        57        Zn     tau(  57) = (   0.1250000   0.5051815   0.3494996  )
        58        Zn     tau(  58) = (   0.6250000   0.5051815   0.3494996  )
        59        Zn     tau(  59) = (   0.1245013   0.5051684   0.8329884  )
        60        Zn     tau(  60) = (   0.6248259   0.5050968   0.8330687  )
[...]
        65        C      tau(  65) = (   0.0958764   0.5780630   1.6266218  )
        66        C      tau(  66) = (   0.1592900   0.5413514   1.5117823  )
        67        C      tau(  67) = (   0.1331186   0.4223444   1.4537430  )
        68        C      tau(  68) = (   0.2494630   0.6235525   1.4540805  )
        69        C      tau(  69) = (   0.3114430   0.5879637   1.3424436  )
        70        C      tau(  70) = (   0.1951033   0.3867376   1.3420579  )
        71        C      tau(  71) = (   0.2856606   0.4687460   1.2841507  )
        72        N      tau(  72) = (   0.0437068   0.6087514   1.7212212  )
        73        N      tau(  73) = (   0.3516227   0.4311666   1.1765539  )
        74        H      tau(  74) = (   0.3975496   0.4995526   1.1243887  )
        75        H      tau(  75) = (   0.3155708   0.3581561   1.1229390  )
        76        H      tau(  76) = (   0.0633638   0.3580351   1.4977940  )
        77        H      tau(  77) = (   0.2702523   0.7159615   1.4984413  )
        78        H      tau(  78) = (   0.3818570   0.6523126   1.2991872  )
        79        H      tau(  79) = (   0.1745302   0.2937755   1.2984412  )

   Crystallographic axes

     site n.     atom                  positions (cryst. coord.)
         1        Zn     tau(   1) = (  0.0833333  0.1666667  0.0513044  )
         2        Zn     tau(   2) = (  0.5833333  0.1666667  0.0513044  )
         3        Zn     tau(   3) = (  0.0834625  0.1667124  0.2599187  )
         4        Zn     tau(   4) = (  0.5832446  0.1666976  0.2605806  )
[...]
     atom   57 type  1   force =     0.00000000    0.00000000    0.00000000
     atom   58 type  1   force =     0.00000000    0.00000000    0.00000000
     atom   59 type  1   force =     0.00000000    0.00000000    0.00000000
     atom   60 type  1   force =     0.00000000    0.00000000    0.00000000
[...]
     atom   65 type  2   force =    -0.00553426    0.00311179    0.00945869
     atom   66 type  2   force =     0.00130953   -0.00048774   -0.00131708
     atom   67 type  2   force =     0.00014882   -0.00347778   -0.00200533
     atom   68 type  2   force =     0.00280569    0.00158710   -0.00275489
     atom   69 type  2   force =     0.00009663    0.00295509    0.00159269
     atom   70 type  2   force =    -0.00243133   -0.00170826    0.00204784
     atom   71 type  2   force =    -0.00216890    0.00102819    0.00029936
     atom   72 type  3   force =    -0.00536500    0.00316680    0.00967704
     atom   73 type  3   force =     0.00505311   -0.00297368    0.00209809
     atom   74 type  4   force =     0.00000000    0.00000000    0.00000000
     atom   75 type  4   force =     0.00000000    0.00000000    0.00000000
     atom   76 type  4   force =     0.00000000    0.00000000    0.00000000
     atom   77 type  4   force =     0.00000000    0.00000000    0.00000000
     atom   78 type  4   force =     0.00000000    0.00000000    0.00000000
     atom   79 type  4   force =     0.00000000    0.00000000    0.00000000
     The Hubbard contrib.    to forces
     atom    1 type  1   force =     0.00000000    0.00000000    0.00000000
     atom    2 type  1   force =     0.00000000    0.00000000    0.00000000
     atom    3 type  1   force =     0.00000000    0.00000000    0.00000000
     atom    4 type  1   force =     0.00000000    0.00000000    0.00000000
     atom    5 type  1   force =     0.00000000    0.00000000    0.00000000
     atom    6 type  1   force =     0.00000000    0.00000000    0.00000000
     atom    7 type  1   force =     0.00000000    0.00000000    0.00000000
     atom    8 type  1   force =     0.00000000    0.00000000    0.00000000
     atom    9 type  1   force =     0.00000000    0.00000000    0.00000000
     atom   10 type  1   force =     0.00000000    0.00000000    0.00000000
     atom   11 type  1   force =     0.00000000    0.00000000    0.00000000
     atom   12 type  1   force =     0.00000000    0.00000000    0.00000000
     atom   13 type  1   force =     0.00000000    0.00000000    0.00000000
     atom   14 type  1   force =     0.00000000    0.00000000    0.00000000
     atom   15 type  1   force =     0.00000000    0.00000000    0.00000000
     atom   16 type  1   force =     0.00000000    0.00000000    0.00000000
     atom   17 type  1   force =     0.00000000    0.00000000    0.00000000
     atom   18 type  1   force =     0.00000000    0.00000000    0.00000000
     atom   19 type  1   force =     0.00000000    0.00000000    0.00000000
     atom   20 type  1   force =     0.00000000    0.00000000    0.00000000
     atom   21 type  1   force =     0.00000000    0.00000000    0.00000000
     atom   22 type  1   force =     0.00000000    0.00000000    0.00000000
     atom   23 type  1   force =     0.00000000    0.00000000    0.00000000
     atom   24 type  1   force =     0.00000000    0.00000000    0.00000000
     atom   25 type  1   force =     0.00000000    0.00000000    0.00000000
     atom   26 type  1   force =     0.00000000    0.00000000    0.00000000
     atom   27 type  1   force =     0.00000000    0.00000000    0.00000000
     atom   28 type  1   force =     0.00000000    0.00000000    0.00000000
     atom   29 type  1   force =     0.00000000    0.00000000    0.00000000
     atom   30 type  1   force =     0.00000000    0.00000000    0.00000000
     atom   31 type  1   force =     0.00000000    0.00000000    0.00000000
     atom   32 type  1   force =     0.00000000    0.00000000    0.00000000
     atom   33 type  1   force =     0.00000000    0.00000000    0.00000000
     atom   34 type  1   force =     0.00000000    0.00000000    0.00000000
     atom   35 type  1   force =     0.00000000    0.00000000    0.00000000
     atom   36 type  1   force =     0.00000000    0.00000000    0.00000000
     atom   37 type  1   force =     0.00000000    0.00000000    0.00000000
     atom   38 type  1   force =     0.00000000    0.00000000    0.00000000
     atom   39 type  1   force =     0.00000000    0.00000000    0.00000000
     atom   40 type  1   force =     0.00000000    0.00000000    0.00000000
     atom   41 type  1   force =     0.00000000    0.00000000    0.00000000
     atom   42 type  1   force =     0.00000000    0.00000000    0.00000000
     atom   43 type  1   force =     0.00000000    0.00000000    0.00000000
     atom   44 type  1   force =     0.00000000    0.00000000    0.00000000
     atom   45 type  1   force =     0.00000000    0.00000000    0.00000000
     atom   46 type  1   force =     0.00000000    0.00000000    0.00000000
     atom   47 type  1   force =     0.00000000    0.00000000    0.00000000
     atom   48 type  1   force =     0.00000000    0.00000000    0.00000000
     atom   49 type  1   force =     0.00000000    0.00000000    0.00000000
     atom   50 type  1   force =     0.00000000    0.00000000    0.00000000
     atom   51 type  1   force =     0.00000000    0.00000000    0.00000000
     atom   52 type  1   force =     0.00000000    0.00000000    0.00000000
     atom   53 type  1   force =     0.00000000    0.00000000    0.00000000
     atom   54 type  1   force =     0.00000000    0.00000000    0.00000000
     atom   55 type  1   force =     0.00000000    0.00000000    0.00000000
     atom   56 type  1   force =     0.00000000    0.00000000    0.00000000
     atom   57 type  1   force =     0.00000000    0.00000000    0.00000000
     atom   58 type  1   force =     0.00000000    0.00000000    0.00000000
     atom   59 type  1   force =     0.00000000    0.00000000    0.00000000
     atom   60 type  1   force =     0.00000000    0.00000000    0.00000000
[...]
     atom   65 type  2   force =     0.00000000    0.00000000    0.00000000
     atom   66 type  2   force =     0.00000000    0.00000000    0.00000000
     atom   67 type  2   force =     0.00000000    0.00000000    0.00000000
     atom   68 type  2   force =     0.00000000    0.00000000    0.00000000
     atom   69 type  2   force =     0.00000000    0.00000000    0.00000000
     atom   70 type  2   force =     0.00000000    0.00000000    0.00000000
     atom   71 type  2   force =     0.00000000    0.00000000    0.00000000
     atom   72 type  3   force =     0.00000000    0.00000000    0.00000000
     atom   73 type  3   force =     0.00000000    0.00000000    0.00000000
     atom   74 type  4   force =     0.00000000    0.00000000    0.00000000
     atom   75 type  4   force =     0.00000000    0.00000000    0.00000000
     atom   76 type  4   force =     0.00000000    0.00000000    0.00000000
     atom   77 type  4   force =     0.00000000    0.00000000    0.00000000
     atom   78 type  4   force =     0.00000000    0.00000000    0.00000000
     atom   79 type  4   force =     0.00000000    0.00000000    0.00000000
     The SCF correction term to forces
     atom    1 type  1   force =    -0.00023401   -0.00025973    0.00086223
     atom    2 type  1   force =     0.00024533   -0.00036252    0.00083939
     atom    3 type  1   force =    -0.00022277   -0.00054141   -0.00030499
     atom    4 type  1   force =     0.00022190   -0.00033957   -0.00023679
     atom    5 type  1   force =    -0.00042808   -0.00013772    0.00080307
     atom    6 type  1   force =     0.00040983   -0.00044276    0.00031677
     atom    7 type  1   force =    -0.00071723   -0.00037038   -0.00030908
     atom    8 type  1   force =     0.00072485   -0.00073920    0.00011441
     atom    9 type  1   force =     0.00007993    0.00015774    0.00089918
     atom   10 type  1   force =    -0.00009392    0.00042261    0.00019950
     atom   11 type  1   force =    -0.00017766    0.00031609   -0.00034447
     atom   12 type  1   force =     0.00018735    0.00054272    0.00006780
     atom   13 type  1   force =     0.00025808    0.00005448    0.00094968
     atom   14 type  1   force =    -0.00027673    0.00055240    0.00070234
     atom   15 type  1   force =     0.00031684    0.00013014   -0.00033575
     atom   16 type  1   force =    -0.00034584    0.00100261   -0.00028889
     atom   17 type  1   force =    -0.00001073   -0.00070747    0.00075335
     atom   18 type  1   force =    -0.00000233    0.00009842    0.00094387
     atom   19 type  1   force =    -0.00005263   -0.00110757   -0.00018805
     atom   20 type  1   force =     0.00005074    0.00018975   -0.00035460
     atom   21 type  1   force =    -0.00050219   -0.00039192    0.00035759
     atom   22 type  1   force =     0.00051844   -0.00018610    0.00079461
     atom   23 type  1   force =    -0.00060180   -0.00088204   -0.00002821
     atom   24 type  1   force =     0.00060118   -0.00024113   -0.00018053
     atom   25 type  1   force =    -0.00068418    0.00028891    0.00056504
     atom   26 type  1   force =     0.00070143    0.00030573    0.00054065
     atom   27 type  1   force =    -0.00113982    0.00042078   -0.00024573
     atom   28 type  1   force =     0.00113055    0.00048107   -0.00003708
     atom   29 type  1   force =    -0.00018170    0.00000703    0.00094338
     atom   30 type  1   force =     0.00020024    0.00060006    0.00072613
     atom   31 type  1   force =    -0.00054293    0.00020535   -0.00040282
     atom   32 type  1   force =     0.00057940    0.00093027   -0.00022970
     atom   33 type  1   force =    -0.00003556   -0.00060060   -0.00038285
     atom   34 type  1   force =     0.00002521    0.00029072   -0.00054993
     atom   35 type  1   force =     0.00002057   -0.00030732   -0.00066838
     atom   36 type  1   force =    -0.00003028    0.00032464   -0.00053688
     atom   37 type  1   force =    -0.00079823   -0.00069409   -0.00060974
     atom   38 type  1   force =     0.00081136   -0.00067942   -0.00056228
     atom   39 type  1   force =    -0.00033913   -0.00045456   -0.00034175
     atom   40 type  1   force =     0.00036314   -0.00026741   -0.00040961
     atom   41 type  1   force =    -0.00078144    0.00014538   -0.00063114
     atom   42 type  1   force =     0.00080235    0.00017308   -0.00075842
     atom   43 type  1   force =    -0.00054168    0.00000280   -0.00040219
     atom   44 type  1   force =     0.00053243   -0.00000859    0.00005801
     atom   45 type  1   force =    -0.00001814    0.00020472   -0.00039484
     atom   46 type  1   force =     0.00002142    0.00118383   -0.00074742
     atom   47 type  1   force =    -0.00018259    0.00015392   -0.00072129
     atom   48 type  1   force =     0.00017997    0.00052874   -0.00010927
     atom   49 type  1   force =    -0.00002442   -0.00061585   -0.00046235
     atom   50 type  1   force =     0.00003437    0.00029634   -0.00046320
     atom   51 type  1   force =    -0.00007224   -0.00013447   -0.00062034
     atom   52 type  1   force =     0.00008366    0.00014609   -0.00059245
     atom   53 type  1   force =    -0.00005029   -0.00117623   -0.00067246
     atom   54 type  1   force =     0.00003558   -0.00020963   -0.00050773
     atom   55 type  1   force =     0.00011035   -0.00061053   -0.00011338
     atom   56 type  1   force =    -0.00012804   -0.00009552   -0.00059823
     atom   57 type  1   force =    -0.00082534    0.00013241   -0.00087786
     atom   58 type  1   force =     0.00080619    0.00017929   -0.00050758
     atom   59 type  1   force =    -0.00022814   -0.00005240    0.00015761
     atom   60 type  1   force =     0.00024715    0.00004167   -0.00053446
[...]
     atom   65 type  2   force =    -0.00008754    0.00005119    0.00016855
     atom   66 type  2   force =     0.00007866   -0.00004478   -0.00013850
     atom   67 type  2   force =     0.00002658   -0.00014473   -0.00014593
     atom   68 type  2   force =     0.00013888    0.00004987   -0.00014543
     atom   69 type  2   force =     0.00000448   -0.00005780   -0.00004692
     atom   70 type  2   force =     0.00005284    0.00002505   -0.00004702
     atom   71 type  2   force =    -0.00002130    0.00001198    0.00004296
     atom   72 type  3   force =    -0.00011226    0.00006614    0.00022050
     atom   73 type  3   force =    -0.00005067    0.00002924    0.00012607
     atom   74 type  4   force =     0.00000126    0.00000635    0.00001212
     atom   75 type  4   force =    -0.00000472   -0.00000432    0.00001215
     atom   76 type  4   force =     0.00000124   -0.00001707   -0.00001270
     atom   77 type  4   force =     0.00001537    0.00000745   -0.00001267
     atom   78 type  4   force =    -0.00000968   -0.00001382    0.00000527
     atom   79 type  4   force =     0.00000724    0.00001537    0.00000555

     Total force =     0.030362     Total SCF correction =     0.006976
     SCF correction compared to forces is large: reduce conv_thr to get better values

     Computing stress (Cartesian axis) and pressure

     negative rho (up, down):  3.477E-02 0.000E+00
          total   stress  (Ry/bohr**3)                   (kbar)     P=     -306.84
  -0.00208454  -0.00000151   0.00000082         -306.65       -0.22        0.12
  -0.00000151  -0.00208617  -0.00000005           -0.22     -306.89       -0.01
   0.00000082  -0.00000005  -0.00208680            0.12       -0.01     -306.98

     kinetic stress (kbar)  17246.78    -18.83     32.35
                              -18.83  17225.27    -18.82
                               32.35    -18.82  17303.90

     local   stress (kbar)**********   -335.25   1279.95
                             -335.25**********   -742.30
                             1279.95   -742.301456374.63

     nonloc. stress (kbar)  -1884.20      0.73     -3.40
                                0.73  -1883.32      1.97
                               -3.40      1.97  -1945.09

     hartree stress (kbar) 756604.25    114.76   -502.23
                              114.76 756736.29    290.95
                             -502.23    290.95-681224.06

     exc-cor stress (kbar)  -8416.12      0.82     -1.73
                                0.82  -8415.18      1.01
                               -1.73      1.01  -8425.41

     corecor stress (kbar)    -80.75     -0.44      0.81
                               -0.44    -81.25     -0.47
                                0.81     -0.47    -81.03

     ewald   stress (kbar) 676331.03    237.99   -805.64
                              237.99 676604.84    467.66
                             -805.64    467.66-782309.91

     hubbard stress (kbar)      0.00      0.00      0.00
                                0.00      0.00      0.00
                                0.00      0.00      0.00

     DFT-D   stress (kbar)      0.00      0.00      0.00
                                0.00      0.00      0.00
                                0.00      0.00      0.00

     XDM     stress (kbar)      0.00      0.00      0.00
                                0.00      0.00      0.00
                                0.00      0.00      0.00

     dft-nl  stress (kbar)      0.00      0.00      0.00
                                0.00      0.00      0.00
                                0.00      0.00      0.00

     TS-vdW  stress (kbar)      0.00      0.00      0.00
                                0.00      0.00      0.00
                                0.00      0.00      0.00

     MDB     stress (kbar)      0.00      0.00      0.00
                                0.00      0.00      0.00
                                0.00      0.00      0.00

     3D-RISM stress (kbar)      0.00      0.00      0.00
                                0.00      0.00      0.00
                                0.00      0.00      0.00

     Writing all to output data dir ./tmp/Zn002_4x4x2_primitive_14Avacumn_bridgesite_tilted_parallel_ABN.save/ :
     XML data file, charge density, pseudopotentials, collected wavefunctions

     General routines

     Parallel routines

     PAW routines

   This run was terminated on:  16:30:27  22Mar2025

   JOB DONE.
Note: The following floating-point exceptions are signalling: IEEE_DENORMAL
Note: The following floating-point exceptions are signalling: IEEE_DENORMAL
Note: The following floating-point exceptions are signalling: IEEE_DENORMAL
Note: The following floating-point exceptions are signalling: IEEE_DENORMAL
Note: The following floating-point exceptions are signalling: IEEE_DENORMAL
Note: The following floating-point exceptions are signalling: IEEE_DENORMAL
Note: The following floating-point exceptions are signalling: IEEE_DENORMAL