     Program PWSCF v.7.3.1 starts on 22Mar2025 at 15:41: 3

     Waiting for input...
     Reading input from standard input
Warning: card &CELL ignored
Warning: card   CELL_DOFREE = 'ALL' ignored
Warning: card / ignored

     Current dimensions of program PWSCF are:
     Max number of different atomic species (ntypx) = 10
     Max number of k-points (npk) =  40000
     Max angular momentum in pseudopotentials (lmaxx) =  4
     file C.pbe-n-kjpaw_psl.1.0.0.UPF: wavefunction(s)  2S 2P renormalized

     R & G space division:  proc/nbgrp/npool/nimage =      16
     Subspace diagonalization in iterative solution of the eigenvalue problem:
     one sub-group per band group will be used

     Using Slab Decomposition

     bravais-lattice index     =            0
     lattice parameter (alat)  =      19.7617  a.u.
     unit-cell volume          =   15176.5939 (a.u.)^3
     number of atoms/cell      =           79
     number of atomic types    =            4
     number of electrons       =      1324.00
     number of Kohn-Sham states=          794
     kinetic-energy cutoff     =      30.0000  Ry
     charge density cutoff     =     120.0000  Ry
     scf convergence threshold =      7.3E-07
     mixing beta               =       0.7000
     number of iterations used =            8  plain     mixing
     Exchange-correlation= PBE
                           (   1   4   3   4   0   0   0)

     celldm(1)=  19.761696  celldm(2)=   0.000000  celldm(3)=   0.000000
     celldm(4)=   0.000000  celldm(5)=   0.000000  celldm(6)=   0.000000

     crystal axes: (cart. coord. in units of alat)
               a(1) = (   1.000000   0.000000   0.000000 )
               a(2) = (  -0.500000   0.866025   0.000000 )
               a(3) = (   0.000000   0.000000   2.270759 )

     reciprocal axes: (cart. coord. in units 2 pi/alat)
               b(1) = (  1.000000  0.577350 -0.000000 )
               b(2) = (  0.000000  1.154701  0.000000 )
               b(3) = (  0.000000 -0.000000  0.440381 )

     PseudoPot. # 1 for Zn read from file:
     /home/ys/qepseudo/SSSP_1.3.0_PBE_efficiency/Zn_pbe_v1.uspp.F.UPF
     MD5 check sum: df62231357ef9e81f77b2b3087fa5675
     Pseudo is Ultrasoft, Zval = 20.0
     Generated by new atomic code, or converted to UPF format
     Using radial grid of  943 points,  6 beta functions with:
                l(1) =   0
                l(2) =   0
                l(3) =   1
                l(4) =   1
                l(5) =   2
                l(6) =   2
     Q(r) pseudized with  8 coefficients,  rinner =    1.100   1.100   1.100
                                                       1.100   1.100

     PseudoPot. # 2 for C  read from file:
     /home/ys/qepseudo/SSSP_1.3.0_PBE_efficiency/C.pbe-n-kjpaw_psl.1.0.0.UPF
     MD5 check sum: 5d2aebdfa2cae82b50a7e79e9516da0f
     Pseudo is Projector augmented-wave + core cor, Zval =  4.0
     Generated using "atomic" code by A. Dal Corso  v.5.1
     Shape of augmentation charge: PSQ
     Using radial grid of 1073 points,  4 beta functions with:
                l(1) =   0
                l(2) =   0
                l(3) =   1
                l(4) =   1
     Q(r) pseudized with 0 coefficients

     PseudoPot. # 3 for N  read from file:
     /home/ys/qepseudo/SSSP_1.3.0_PBE_efficiency/N.pbe-n-radius_5.UPF
     MD5 check sum: 16739722b17309cd8fe442a2ace49922
     Pseudo is Ultrasoft + core correction, Zval =  5.0
     Generated using "atomic" code by A. Dal Corso  v.5.1
     Using radial grid of 1085 points,  4 beta functions with:
                l(1) =   0
                l(2) =   0
                l(3) =   1
                l(4) =   1
     Q(r) pseudized with 0 coefficients

     PseudoPot. # 4 for H  read from file:
     /home/ys/qepseudo/SSSP_1.3.0_PBE_efficiency/H.pbe-rrkjus_psl.1.0.0.UPF
     MD5 check sum: f52b6d4d1c606e5624b1dc7b2218f220
     Pseudo is Ultrasoft, Zval =  1.0
     Generated using "atomic" code by A. Dal Corso  v.5.1
     Using radial grid of  929 points,  2 beta functions with:
                l(1) =   0
                l(2) =   0
     Q(r) pseudized with 0 coefficients

     atomic species   valence    mass     pseudopotential
     Zn               20.00    65.38000     Zn( 1.00)
     C                 4.00    12.01070     C ( 1.00)
     N                 5.00    14.00670     N ( 1.00)
     H                 1.00     1.00800     H ( 1.00)

     No symmetry found

                                    s                        frac. trans.

      isym =  1     identity

 cryst.   s( 1) = (     1          0          0      )
                  (     0          1          0      )
                  (     0          0          1      )

 cart.    s( 1) = (  1.0000000  0.0000000  0.0000000 )
                  (  0.0000000  1.0000000  0.0000000 )
                  (  0.0000000  0.0000000  1.0000000 )

   Cartesian axes

     site n.     atom                  positions (alat units)
         1        Zn     tau(   1) = (  -0.0000000   0.1443376   0.1164999  )
         2        Zn     tau(   2) = (   0.5000000   0.1443376   0.1164999  )
         3        Zn     tau(   3) = (   0.0001063   0.1443772   0.5902127  )
         4        Zn     tau(   4) = (   0.4998958   0.1443643   0.5917156  )
         5        Zn     tau(   5) = (  -0.1250000   0.3608439   0.1164999  )
         6        Zn     tau(   6) = (   0.3750000   0.3608439   0.1164999  )
         7        Zn     tau(   7) = (  -0.1249761   0.3609302   0.5908726  )
         8        Zn     tau(   8) = (   0.3749642   0.3608477   0.5913644  )
         9        Zn     tau(   9) = (  -0.2500000   0.5773503   0.1164999  )
        10        Zn     tau(  10) = (   0.2500000   0.5773503   0.1164999  )
        11        Zn     tau(  11) = (  -0.2499911   0.5773738   0.5915504  )
        12        Zn     tau(  12) = (   0.2499824   0.5772583   0.5907382  )
        13        Zn     tau(  13) = (  -0.3750000   0.7938566   0.1164999  )
        14        Zn     tau(  14) = (   0.1250000   0.7938566   0.1164999  )
        15        Zn     tau(  15) = (  -0.3749161   0.7938269   0.5909604  )
        16        Zn     tau(  16) = (   0.1249053   0.7937898   0.5911170  )
        17        Zn     tau(  17) = (   0.2500000   0.1443376   0.1164999  )
        18        Zn     tau(  18) = (   0.7500000   0.1443376   0.1164999  )
        19        Zn     tau(  19) = (   0.2499566   0.1443139   0.5910485  )
        20        Zn     tau(  20) = (   0.7500401   0.1444360   0.5909256  )
        21        Zn     tau(  21) = (   0.1250000   0.3608439   0.1164999  )
        22        Zn     tau(  22) = (   0.6250000   0.3608439   0.1164999  )
        23        Zn     tau(  23) = (   0.1249684   0.3608327   0.5904686  )
        24        Zn     tau(  24) = (   0.6250220   0.3609386   0.5917101  )
        25        Zn     tau(  25) = (  -0.0000000   0.5773503   0.1164999  )
        26        Zn     tau(  26) = (   0.5000000   0.5773503   0.1164999  )
        27        Zn     tau(  27) = (  -0.0000983   0.5773031   0.5910657  )
        28        Zn     tau(  28) = (   0.5000885   0.5773473   0.5912976  )
        29        Zn     tau(  29) = (  -0.1250000   0.7938566   0.1164999  )
        30        Zn     tau(  30) = (   0.3750000   0.7938566   0.1164999  )
        31        Zn     tau(  31) = (  -0.1251014   0.7937984   0.5915674  )
        32        Zn     tau(  32) = (   0.3751324   0.7938157   0.5904624  )
        33        Zn     tau(  33) = (   0.1250000   0.0721688   0.3494996  )
        34        Zn     tau(  34) = (   0.6250000   0.0721688   0.3494996  )
        35        Zn     tau(  35) = (   0.1247726   0.0722058   0.8326360  )
        36        Zn     tau(  36) = (   0.6249486   0.0720367   0.8314330  )
        37        Zn     tau(  37) = (   0.0000000   0.2886751   0.3494996  )
        38        Zn     tau(  38) = (   0.5000000   0.2886751   0.3494996  )
        39        Zn     tau(  39) = (  -0.0001344   0.2886941   0.8326071  )
        40        Zn     tau(  40) = (   0.4993101   0.2889503   0.8277979  )
        41        Zn     tau(  41) = (  -0.1250000   0.5051815   0.3494996  )
        42        Zn     tau(  42) = (   0.3750000   0.5051815   0.3494996  )
        43        Zn     tau(  43) = (  -0.1249856   0.5051881   0.8329768  )
        44        Zn     tau(  44) = (   0.3745313   0.5054640   0.8331083  )
        45        Zn     tau(  45) = (  -0.2500000   0.7216878   0.3494996  )
        46        Zn     tau(  46) = (   0.2500000   0.7216878   0.3494996  )
        47        Zn     tau(  47) = (  -0.2500562   0.7216506   0.8329736  )
        48        Zn     tau(  48) = (   0.2499250   0.7217568   0.8325864  )
        49        Zn     tau(  49) = (   0.3750000   0.0721688   0.3494996  )
        50        Zn     tau(  50) = (   0.8750000   0.0721688   0.3494996  )
        51        Zn     tau(  51) = (   0.3746129   0.0720490   0.8311766  )
        52        Zn     tau(  52) = (   0.8749386   0.0722070   0.8322939  )
        53        Zn     tau(  53) = (   0.2500000   0.2886751   0.3494996  )
        54        Zn     tau(  54) = (   0.7500000   0.2886751   0.3494996  )
        55        Zn     tau(  55) = (   0.2494714   0.2888563   0.8328535  )
        56        Zn     tau(  56) = (   0.7500128   0.2887020   0.8317569  )
        57        Zn     tau(  57) = (   0.1250000   0.5051815   0.3494996  )
        58        Zn     tau(  58) = (   0.6250000   0.5051815   0.3494996  )
        59        Zn     tau(  59) = (   0.1248458   0.5052233   0.8329632  )
        60        Zn     tau(  60) = (   0.6248341   0.5054540   0.8318387  )
[...]
        65        C      tau(  65) = (   0.2017768   0.4833190   1.5410662  )
        66        C      tau(  66) = (   0.2769970   0.4311659   1.4401634  )
        67        C      tau(  67) = (   0.2561091   0.3048495   1.3971268  )
        68        C      tau(  68) = (   0.3740785   0.5044941   1.3817963  )
        69        C      tau(  69) = (   0.4487845   0.4529558   1.2851525  )
        70        C      tau(  70) = (   0.3304093   0.2533745   1.3001341  )
        71        C      tau(  71) = (   0.4300251   0.3255586   1.2438215  )
        72        N      tau(  72) = (   0.1399783   0.5260604   1.6245260  )
        73        N      tau(  73) = (   0.5111196   0.2708082   1.1559432  )
        74        H      tau(  74) = (   0.5673992   0.3288321   1.1013537  )
        75        H      tau(  75) = (   0.4832632   0.1886241   1.1115576  )
        76        H      tau(  76) = (   0.1804090   0.2476586   1.4411460  )
        77        H      tau(  77) = (   0.3903880   0.6027551   1.4136406  )
        78        H      tau(  78) = (   0.5250905   0.5102970   1.2419790  )
        79        H      tau(  79) = (   0.3141191   0.1547516   1.2688434  )

   Crystallographic axes

     site n.     atom                  positions (cryst. coord.)
         1        Zn     tau(   1) = (  0.0833333  0.1666667  0.0513044  )
         2        Zn     tau(   2) = (  0.5833333  0.1666667  0.0513044  )
         3        Zn     tau(   3) = (  0.0834625  0.1667124  0.2599187  )
         4        Zn     tau(   4) = (  0.5832446  0.1666976  0.2605806  )
[...]
     atom   57 type  1   force =     0.00000000    0.00000000    0.00000000
     atom   58 type  1   force =     0.00000000    0.00000000    0.00000000
     atom   59 type  1   force =     0.00000000    0.00000000    0.00000000
     atom   60 type  1   force =     0.00000000    0.00000000    0.00000000
[...]
     atom   65 type  2   force =    -0.00665921    0.00487023    0.00892915
     atom   66 type  2   force =     0.00176696    0.00095529    0.00009341
     atom   67 type  2   force =     0.00139820   -0.00552262   -0.00131711
     atom   68 type  2   force =     0.00321782    0.00056339   -0.00171957
     atom   69 type  2   force =    -0.00194024    0.00437295    0.00122990
     atom   70 type  2   force =    -0.00502161   -0.00133475    0.00012716
     atom   71 type  2   force =    -0.00090451    0.00099962   -0.00286789
     atom   72 type  3   force =    -0.00634503    0.00441353    0.00861633
     atom   73 type  3   force =     0.00439390   -0.00232560    0.00312655
     atom   74 type  4   force =     0.00000000    0.00000000    0.00000000
     atom   75 type  4   force =     0.00000000    0.00000000    0.00000000
     atom   76 type  4   force =     0.00000000    0.00000000    0.00000000
     atom   77 type  4   force =     0.00000000    0.00000000    0.00000000
     atom   78 type  4   force =     0.00000000    0.00000000    0.00000000
     atom   79 type  4   force =     0.00000000    0.00000000    0.00000000
     The Hubbard contrib.    to forces
     atom    1 type  1   force =     0.00000000    0.00000000    0.00000000
     atom    2 type  1   force =     0.00000000    0.00000000    0.00000000
     atom    3 type  1   force =     0.00000000    0.00000000    0.00000000
     atom    4 type  1   force =     0.00000000    0.00000000    0.00000000
     atom    5 type  1   force =     0.00000000    0.00000000    0.00000000
     atom    6 type  1   force =     0.00000000    0.00000000    0.00000000
     atom    7 type  1   force =     0.00000000    0.00000000    0.00000000
     atom    8 type  1   force =     0.00000000    0.00000000    0.00000000
     atom    9 type  1   force =     0.00000000    0.00000000    0.00000000
     atom   10 type  1   force =     0.00000000    0.00000000    0.00000000
     atom   11 type  1   force =     0.00000000    0.00000000    0.00000000
     atom   12 type  1   force =     0.00000000    0.00000000    0.00000000
     atom   13 type  1   force =     0.00000000    0.00000000    0.00000000
     atom   14 type  1   force =     0.00000000    0.00000000    0.00000000
     atom   15 type  1   force =     0.00000000    0.00000000    0.00000000
     atom   16 type  1   force =     0.00000000    0.00000000    0.00000000
     atom   17 type  1   force =     0.00000000    0.00000000    0.00000000
     atom   18 type  1   force =     0.00000000    0.00000000    0.00000000
     atom   19 type  1   force =     0.00000000    0.00000000    0.00000000
     atom   20 type  1   force =     0.00000000    0.00000000    0.00000000
     atom   21 type  1   force =     0.00000000    0.00000000    0.00000000
     atom   22 type  1   force =     0.00000000    0.00000000    0.00000000
     atom   23 type  1   force =     0.00000000    0.00000000    0.00000000
     atom   24 type  1   force =     0.00000000    0.00000000    0.00000000
     atom   25 type  1   force =     0.00000000    0.00000000    0.00000000
     atom   26 type  1   force =     0.00000000    0.00000000    0.00000000
     atom   27 type  1   force =     0.00000000    0.00000000    0.00000000
     atom   28 type  1   force =     0.00000000    0.00000000    0.00000000
     atom   29 type  1   force =     0.00000000    0.00000000    0.00000000
     atom   30 type  1   force =     0.00000000    0.00000000    0.00000000
     atom   31 type  1   force =     0.00000000    0.00000000    0.00000000
     atom   32 type  1   force =     0.00000000    0.00000000    0.00000000
     atom   33 type  1   force =     0.00000000    0.00000000    0.00000000
     atom   34 type  1   force =     0.00000000    0.00000000    0.00000000
     atom   35 type  1   force =     0.00000000    0.00000000    0.00000000
     atom   36 type  1   force =     0.00000000    0.00000000    0.00000000
     atom   37 type  1   force =     0.00000000    0.00000000    0.00000000
     atom   38 type  1   force =     0.00000000    0.00000000    0.00000000
     atom   39 type  1   force =     0.00000000    0.00000000    0.00000000
     atom   40 type  1   force =     0.00000000    0.00000000    0.00000000
     atom   41 type  1   force =     0.00000000    0.00000000    0.00000000
     atom   42 type  1   force =     0.00000000    0.00000000    0.00000000
     atom   43 type  1   force =     0.00000000    0.00000000    0.00000000
     atom   44 type  1   force =     0.00000000    0.00000000    0.00000000
     atom   45 type  1   force =     0.00000000    0.00000000    0.00000000
     atom   46 type  1   force =     0.00000000    0.00000000    0.00000000
     atom   47 type  1   force =     0.00000000    0.00000000    0.00000000
     atom   48 type  1   force =     0.00000000    0.00000000    0.00000000
     atom   49 type  1   force =     0.00000000    0.00000000    0.00000000
     atom   50 type  1   force =     0.00000000    0.00000000    0.00000000
     atom   51 type  1   force =     0.00000000    0.00000000    0.00000000
     atom   52 type  1   force =     0.00000000    0.00000000    0.00000000
     atom   53 type  1   force =     0.00000000    0.00000000    0.00000000
     atom   54 type  1   force =     0.00000000    0.00000000    0.00000000
     atom   55 type  1   force =     0.00000000    0.00000000    0.00000000
     atom   56 type  1   force =     0.00000000    0.00000000    0.00000000
     atom   57 type  1   force =     0.00000000    0.00000000    0.00000000
     atom   58 type  1   force =     0.00000000    0.00000000    0.00000000
     atom   59 type  1   force =     0.00000000    0.00000000    0.00000000
     atom   60 type  1   force =     0.00000000    0.00000000    0.00000000
[...]
     atom   65 type  2   force =     0.00000000    0.00000000    0.00000000
     atom   66 type  2   force =     0.00000000    0.00000000    0.00000000
     atom   67 type  2   force =     0.00000000    0.00000000    0.00000000
     atom   68 type  2   force =     0.00000000    0.00000000    0.00000000
     atom   69 type  2   force =     0.00000000    0.00000000    0.00000000
     atom   70 type  2   force =     0.00000000    0.00000000    0.00000000
     atom   71 type  2   force =     0.00000000    0.00000000    0.00000000
     atom   72 type  3   force =     0.00000000    0.00000000    0.00000000
     atom   73 type  3   force =     0.00000000    0.00000000    0.00000000
     atom   74 type  4   force =     0.00000000    0.00000000    0.00000000
     atom   75 type  4   force =     0.00000000    0.00000000    0.00000000
     atom   76 type  4   force =     0.00000000    0.00000000    0.00000000
     atom   77 type  4   force =     0.00000000    0.00000000    0.00000000
     atom   78 type  4   force =     0.00000000    0.00000000    0.00000000
     atom   79 type  4   force =     0.00000000    0.00000000    0.00000000
     The SCF correction term to forces
     atom    1 type  1   force =    -0.00018807   -0.00011767    0.00071143
     atom    2 type  1   force =     0.00018438   -0.00052536    0.00026659
     atom    3 type  1   force =    -0.00043133   -0.00026272   -0.00042353
     atom    4 type  1   force =     0.00045100   -0.00079949    0.00022937
     atom    5 type  1   force =     0.00028076   -0.00001020    0.00065884
     atom    6 type  1   force =    -0.00029320    0.00017172    0.00009754
     atom    7 type  1   force =    -0.00007900    0.00001446   -0.00030123
     atom    8 type  1   force =     0.00008688   -0.00005824    0.00013053
     atom    9 type  1   force =     0.00030526    0.00021096    0.00063162
     atom   10 type  1   force =    -0.00031699    0.00043048    0.00045284
     atom   11 type  1   force =     0.00041101    0.00024717   -0.00023062
     atom   12 type  1   force =    -0.00044677    0.00080809   -0.00037490
     atom   13 type  1   force =    -0.00012563    0.00007145    0.00068058
     atom   14 type  1   force =     0.00015007   -0.00023764    0.00064526
     atom   15 type  1   force =     0.00005306   -0.00002241   -0.00035710
     atom   16 type  1   force =    -0.00006005    0.00006522   -0.00027649
     atom   17 type  1   force =    -0.00051273   -0.00037822    0.00039028
     atom   18 type  1   force =     0.00052077   -0.00027276    0.00061633
     atom   19 type  1   force =    -0.00039309   -0.00085698   -0.00011055
     atom   20 type  1   force =     0.00037992   -0.00022173   -0.00009611
     atom   21 type  1   force =    -0.00055625    0.00004670    0.00045684
     atom   22 type  1   force =     0.00057002    0.00011905    0.00028069
     atom   23 type  1   force =    -0.00092221   -0.00002570   -0.00037971
     atom   24 type  1   force =     0.00091361   -0.00000337    0.00020798
     atom   25 type  1   force =    -0.00008579    0.00002108    0.00068770
     atom   26 type  1   force =     0.00009428    0.00061790    0.00039648
     atom   27 type  1   force =    -0.00049952    0.00029086   -0.00049143
     atom   28 type  1   force =     0.00054101    0.00076757   -0.00012759
     atom   29 type  1   force =    -0.00005401   -0.00038348    0.00061867
     atom   30 type  1   force =     0.00003237    0.00023536    0.00070811
     atom   31 type  1   force =    -0.00000607   -0.00046620   -0.00020941
     atom   32 type  1   force =     0.00001051    0.00051298   -0.00041934
     atom   33 type  1   force =    -0.00051251   -0.00036916   -0.00058167
     atom   34 type  1   force =     0.00053454   -0.00061007   -0.00044447
     atom   35 type  1   force =    -0.00005826   -0.00026353   -0.00062829
     atom   36 type  1   force =     0.00007795    0.00004891   -0.00066663
     atom   37 type  1   force =    -0.00043955   -0.00011476   -0.00062938
     atom   38 type  1   force =     0.00045985   -0.00025182   -0.00065022
     atom   39 type  1   force =    -0.00047942   -0.00015975   -0.00059681
     atom   40 type  1   force =     0.00047166   -0.00028865   -0.00016384
     atom   41 type  1   force =     0.00018720    0.00015775   -0.00044940
     atom   42 type  1   force =    -0.00019383    0.00083384   -0.00081993
     atom   43 type  1   force =    -0.00030105    0.00004987   -0.00075511
     atom   44 type  1   force =     0.00028574    0.00012388   -0.00014759
     atom   45 type  1   force =     0.00008478   -0.00006560   -0.00041531
     atom   46 type  1   force =    -0.00010717    0.00043205   -0.00061257
     atom   47 type  1   force =     0.00011403   -0.00004605   -0.00077269
     atom   48 type  1   force =    -0.00011948    0.00050444   -0.00060228
     atom   49 type  1   force =    -0.00017824   -0.00093592   -0.00052818
     atom   50 type  1   force =     0.00015474   -0.00007186   -0.00051210
     atom   51 type  1   force =     0.00020710   -0.00034426   -0.00051335
     atom   52 type  1   force =    -0.00022608    0.00012965   -0.00077470
     atom   53 type  1   force =    -0.00083964   -0.00024605   -0.00082295
     atom   54 type  1   force =     0.00081188   -0.00013278   -0.00046269
     atom   55 type  1   force =     0.00003265   -0.00032799   -0.00015262
     atom   56 type  1   force =    -0.00000729   -0.00011024   -0.00065966
     atom   57 type  1   force =    -0.00073868    0.00040692   -0.00073008
     atom   58 type  1   force =     0.00074076    0.00061551   -0.00054640
     atom   59 type  1   force =    -0.00036215    0.00021083   -0.00042546
     atom   60 type  1   force =     0.00039747   -0.00001365   -0.00050377
[...]
     atom   65 type  2   force =    -0.00020517    0.00014149    0.00030477
     atom   66 type  2   force =     0.00012750   -0.00008889   -0.00014818
     atom   67 type  2   force =     0.00002893   -0.00017189   -0.00009231
     atom   68 type  2   force =     0.00015844    0.00004183   -0.00011183
     atom   69 type  2   force =     0.00000896   -0.00001019    0.00000511
     atom   70 type  2   force =     0.00001145   -0.00000362    0.00000564
     atom   71 type  2   force =    -0.00003580    0.00002778    0.00005339
     atom   72 type  3   force =    -0.00024572    0.00016931    0.00037150
     atom   73 type  3   force =    -0.00002432    0.00001769    0.00003666
     atom   74 type  4   force =     0.00001056    0.00001016   -0.00000627
     atom   75 type  4   force =    -0.00000474   -0.00001460   -0.00000439
     atom   76 type  4   force =     0.00000312   -0.00002040   -0.00000623
     atom   77 type  4   force =     0.00001866    0.00000533   -0.00000853
     atom   78 type  4   force =    -0.00000550   -0.00000500    0.00000934
     atom   79 type  4   force =     0.00000144    0.00000641    0.00000807

     Total force =     0.030401     Total SCF correction =     0.006051
     SCF correction compared to forces is large: reduce conv_thr to get better values

     Computing stress (Cartesian axis) and pressure

     negative rho (up, down):  3.479E-02 0.000E+00
          total   stress  (Ry/bohr**3)                   (kbar)     P=     -306.74
  -0.00208412  -0.00000149   0.00000092         -306.59       -0.22        0.14
  -0.00000149  -0.00208575  -0.00000017           -0.22     -306.82       -0.03
   0.00000092  -0.00000017  -0.00208558            0.14       -0.03     -306.80

     kinetic stress (kbar)  17237.38    -10.92     37.13
                              -10.92  17219.35    -20.68
                               37.13    -20.68  17319.30

     local   stress (kbar)**********     -4.91   1371.78
                               -4.91**********   -808.00
                             1371.78   -808.001463659.42

     nonloc. stress (kbar)  -1883.27     -0.01     -3.66
                               -0.01  -1882.65      2.17
                               -3.66      2.17  -1946.42

     hartree stress (kbar) 760042.07    -17.24   -533.90
                              -17.24 760133.66    316.33
                             -533.90    316.33-684788.76

     exc-cor stress (kbar)  -8415.66      0.41     -1.93
                                0.41  -8414.88      1.09
                               -1.93      1.09  -8426.18

     corecor stress (kbar)    -80.98     -0.23      0.92
                               -0.23    -81.37     -0.51
                                0.92     -0.51    -80.68

     ewald   stress (kbar) 679880.75     32.69   -870.19
                               32.69 680084.69    509.58
                             -870.19    509.58-786043.48

     hubbard stress (kbar)      0.00      0.00      0.00
                                0.00      0.00      0.00
                                0.00      0.00      0.00

     DFT-D   stress (kbar)      0.00      0.00      0.00
                                0.00      0.00      0.00
                                0.00      0.00      0.00

     XDM     stress (kbar)      0.00      0.00      0.00
                                0.00      0.00      0.00
                                0.00      0.00      0.00

     dft-nl  stress (kbar)      0.00      0.00      0.00
                                0.00      0.00      0.00
                                0.00      0.00      0.00

     TS-vdW  stress (kbar)      0.00      0.00      0.00
                                0.00      0.00      0.00
                                0.00      0.00      0.00

     MDB     stress (kbar)      0.00      0.00      0.00
                                0.00      0.00      0.00
                                0.00      0.00      0.00

     3D-RISM stress (kbar)      0.00      0.00      0.00
                                0.00      0.00      0.00
                                0.00      0.00      0.00

     Writing all to output data dir ./tmp/Zn002_4x4x2_primitive_14Avacumn_topsite_tilted_ABN.save/ :
     XML data file, charge density, pseudopotentials, collected wavefunctions

     General routines

     Parallel routines

     PAW routines

   This run was terminated on:  19:19:49  22Mar2025

   JOB DONE.
Note: The following floating-point exceptions are signalling: IEEE_DENORMAL
Note: The following floating-point exceptions are signalling: IEEE_DENORMAL
Note: The following floating-point exceptions are signalling: IEEE_DENORMAL
Note: The following floating-point exceptions are signalling: IEEE_DENORMAL
Note: The following floating-point exceptions are signalling: IEEE_DENORMAL
Note: The following floating-point exceptions are signalling: IEEE_DENORMAL
Note: The following floating-point exceptions are signalling: IEEE_DENORMAL