     Program PWSCF v.7.3.1 starts on 22Mar2025 at 15:30:14

     Waiting for input...
     Reading input from standard input
Warning: card &CELL ignored
Warning: card   CELL_DOFREE = 'ALL' ignored
Warning: card / ignored

     Current dimensions of program PWSCF are:
     Max number of different atomic species (ntypx) = 10
     Max number of k-points (npk) =  40000
     Max angular momentum in pseudopotentials (lmaxx) =  4
     file C.pbe-n-kjpaw_psl.1.0.0.UPF: wavefunction(s)  2S 2P renormalized

     R & G space division:  proc/nbgrp/npool/nimage =      16
     Subspace diagonalization in iterative solution of the eigenvalue problem:
     one sub-group per band group will be used

     Using Slab Decomposition

     bravais-lattice index     =            0
     lattice parameter (alat)  =      19.7617  a.u.
     unit-cell volume          =   15176.5939 (a.u.)^3
     number of atoms/cell      =           79
     number of atomic types    =            4
     number of electrons       =      1324.00
     number of Kohn-Sham states=          794
     kinetic-energy cutoff     =      30.0000  Ry
     charge density cutoff     =     120.0000  Ry
     scf convergence threshold =      7.3E-07
     mixing beta               =       0.7000
     number of iterations used =            8  plain     mixing
     Exchange-correlation= PBE
                           (   1   4   3   4   0   0   0)

     celldm(1)=  19.761696  celldm(2)=   0.000000  celldm(3)=   0.000000
     celldm(4)=   0.000000  celldm(5)=   0.000000  celldm(6)=   0.000000

     crystal axes: (cart. coord. in units of alat)
               a(1) = (   1.000000   0.000000   0.000000 )
               a(2) = (  -0.500000   0.866025   0.000000 )
               a(3) = (   0.000000   0.000000   2.270759 )

     reciprocal axes: (cart. coord. in units 2 pi/alat)
               b(1) = (  1.000000  0.577350 -0.000000 )
               b(2) = (  0.000000  1.154701  0.000000 )
               b(3) = (  0.000000 -0.000000  0.440381 )

     PseudoPot. # 1 for Zn read from file:
     /home/ys/qepseudo/SSSP_1.3.0_PBE_efficiency/Zn_pbe_v1.uspp.F.UPF
     MD5 check sum: df62231357ef9e81f77b2b3087fa5675
     Pseudo is Ultrasoft, Zval = 20.0
     Generated by new atomic code, or converted to UPF format
     Using radial grid of  943 points,  6 beta functions with:
                l(1) =   0
                l(2) =   0
                l(3) =   1
                l(4) =   1
                l(5) =   2
                l(6) =   2
     Q(r) pseudized with  8 coefficients,  rinner =    1.100   1.100   1.100
                                                       1.100   1.100

     PseudoPot. # 2 for C  read from file:
     /home/ys/qepseudo/SSSP_1.3.0_PBE_efficiency/C.pbe-n-kjpaw_psl.1.0.0.UPF
     MD5 check sum: 5d2aebdfa2cae82b50a7e79e9516da0f
     Pseudo is Projector augmented-wave + core cor, Zval =  4.0
     Generated using "atomic" code by A. Dal Corso  v.5.1
     Shape of augmentation charge: PSQ
     Using radial grid of 1073 points,  4 beta functions with:
                l(1) =   0
                l(2) =   0
                l(3) =   1
                l(4) =   1
     Q(r) pseudized with 0 coefficients

     PseudoPot. # 3 for N  read from file:
     /home/ys/qepseudo/SSSP_1.3.0_PBE_efficiency/N.pbe-n-radius_5.UPF
     MD5 check sum: 16739722b17309cd8fe442a2ace49922
     Pseudo is Ultrasoft + core correction, Zval =  5.0
     Generated using "atomic" code by A. Dal Corso  v.5.1
     Using radial grid of 1085 points,  4 beta functions with:
                l(1) =   0
                l(2) =   0
                l(3) =   1
                l(4) =   1
     Q(r) pseudized with 0 coefficients

     PseudoPot. # 4 for H  read from file:
     /home/ys/qepseudo/SSSP_1.3.0_PBE_efficiency/H.pbe-rrkjus_psl.1.0.0.UPF
     MD5 check sum: f52b6d4d1c606e5624b1dc7b2218f220
     Pseudo is Ultrasoft, Zval =  1.0
     Generated using "atomic" code by A. Dal Corso  v.5.1
     Using radial grid of  929 points,  2 beta functions with:
                l(1) =   0
                l(2) =   0
     Q(r) pseudized with 0 coefficients

     atomic species   valence    mass     pseudopotential
     Zn               20.00    65.38000     Zn( 1.00)
     C                 4.00    12.01070     C ( 1.00)
     N                 5.00    14.00670     N ( 1.00)
     H                 1.00     1.00800     H ( 1.00)

     No symmetry found

                                    s                        frac. trans.

      isym =  1     identity

 cryst.   s( 1) = (     1          0          0      )
                  (     0          1          0      )
                  (     0          0          1      )

 cart.    s( 1) = (  1.0000000  0.0000000  0.0000000 )
                  (  0.0000000  1.0000000  0.0000000 )
                  (  0.0000000  0.0000000  1.0000000 )

   Cartesian axes

     site n.     atom                  positions (alat units)
         1        Zn     tau(   1) = (  -0.0000000   0.1443376   0.1164999  )
         2        Zn     tau(   2) = (   0.5000000   0.1443376   0.1164999  )
         3        Zn     tau(   3) = (   0.0001063   0.1443772   0.5902127  )
         4        Zn     tau(   4) = (   0.4998958   0.1443643   0.5917156  )
         5        Zn     tau(   5) = (  -0.1250000   0.3608439   0.1164999  )
         6        Zn     tau(   6) = (   0.3750000   0.3608439   0.1164999  )
         7        Zn     tau(   7) = (  -0.1249761   0.3609302   0.5908726  )
         8        Zn     tau(   8) = (   0.3749642   0.3608477   0.5913644  )
         9        Zn     tau(   9) = (  -0.2500000   0.5773503   0.1164999  )
        10        Zn     tau(  10) = (   0.2500000   0.5773503   0.1164999  )
        11        Zn     tau(  11) = (  -0.2499911   0.5773738   0.5915504  )
        12        Zn     tau(  12) = (   0.2499824   0.5772583   0.5907382  )
        13        Zn     tau(  13) = (  -0.3750000   0.7938566   0.1164999  )
        14        Zn     tau(  14) = (   0.1250000   0.7938566   0.1164999  )
        15        Zn     tau(  15) = (  -0.3749161   0.7938269   0.5909604  )
        16        Zn     tau(  16) = (   0.1249053   0.7937898   0.5911170  )
        17        Zn     tau(  17) = (   0.2500000   0.1443376   0.1164999  )
        18        Zn     tau(  18) = (   0.7500000   0.1443376   0.1164999  )
        19        Zn     tau(  19) = (   0.2499566   0.1443139   0.5910485  )
        20        Zn     tau(  20) = (   0.7500401   0.1444360   0.5909256  )
        21        Zn     tau(  21) = (   0.1250000   0.3608439   0.1164999  )
        22        Zn     tau(  22) = (   0.6250000   0.3608439   0.1164999  )
        23        Zn     tau(  23) = (   0.1249684   0.3608327   0.5904686  )
        24        Zn     tau(  24) = (   0.6250220   0.3609386   0.5917101  )
        25        Zn     tau(  25) = (  -0.0000000   0.5773503   0.1164999  )
        26        Zn     tau(  26) = (   0.5000000   0.5773503   0.1164999  )
        27        Zn     tau(  27) = (  -0.0000983   0.5773031   0.5910657  )
        28        Zn     tau(  28) = (   0.5000885   0.5773473   0.5912976  )
        29        Zn     tau(  29) = (  -0.1250000   0.7938566   0.1164999  )
        30        Zn     tau(  30) = (   0.3750000   0.7938566   0.1164999  )
        31        Zn     tau(  31) = (  -0.1251014   0.7937984   0.5915674  )
        32        Zn     tau(  32) = (   0.3751324   0.7938157   0.5904624  )
        33        Zn     tau(  33) = (   0.1250000   0.0721688   0.3494996  )
        34        Zn     tau(  34) = (   0.6250000   0.0721688   0.3494996  )
        35        Zn     tau(  35) = (   0.1248704   0.0720543   0.8322872  )
        36        Zn     tau(  36) = (   0.6249662   0.0722631   0.8328120  )
        37        Zn     tau(  37) = (   0.0000000   0.2886751   0.3494996  )
        38        Zn     tau(  38) = (   0.5000000   0.2886751   0.3494996  )
        39        Zn     tau(  39) = (  -0.0001124   0.2887197   0.8323736  )
        40        Zn     tau(  40) = (   0.5000283   0.2886949   0.8337690  )
        41        Zn     tau(  41) = (  -0.1250000   0.5051815   0.3494996  )
        42        Zn     tau(  42) = (   0.3750000   0.5051815   0.3494996  )
        43        Zn     tau(  43) = (  -0.1249832   0.5052069   0.8329413  )
        44        Zn     tau(  44) = (   0.3751430   0.5054781   0.8266636  )
        45        Zn     tau(  45) = (  -0.2500000   0.7216878   0.3494996  )
        46        Zn     tau(  46) = (   0.2500000   0.7216878   0.3494996  )
        47        Zn     tau(  47) = (  -0.2499807   0.7217075   0.8330514  )
        48        Zn     tau(  48) = (   0.2498824   0.7218414   0.8325409  )
        49        Zn     tau(  49) = (   0.3750000   0.0721688   0.3494996  )
        50        Zn     tau(  50) = (   0.8750000   0.0721688   0.3494996  )
        51        Zn     tau(  51) = (   0.3750270   0.0721156   0.8331918  )
        52        Zn     tau(  52) = (   0.8749280   0.0722305   0.8320964  )
        53        Zn     tau(  53) = (   0.2500000   0.2886751   0.3494996  )
        54        Zn     tau(  54) = (   0.7500000   0.2886751   0.3494996  )
        55        Zn     tau(  55) = (   0.2498616   0.2884031   0.8275225  )
        56        Zn     tau(  56) = (   0.7499870   0.2887253   0.8329144  )
        57        Zn     tau(  57) = (   0.1250000   0.5051815   0.3494996  )
        58        Zn     tau(  58) = (   0.6250000   0.5051815   0.3494996  )
        59        Zn     tau(  59) = (   0.1248788   0.5052943   0.8329085  )
        60        Zn     tau(  60) = (   0.6250977   0.5052298   0.8331912  )
[...]
        65        C      tau(  65) = (   0.3338913   0.4086714   1.7082713  )
        66        C      tau(  66) = (   0.3299463   0.4087103   1.5718571  )
        67        C      tau(  67) = (   0.2638685   0.3122948   1.5044679  )
        68        C      tau(  68) = (   0.3904633   0.5064655   1.5013839  )
        69        C      tau(  69) = (   0.3854315   0.5078884   1.3690900  )
        70        C      tau(  70) = (   0.2588418   0.3133157   1.3718345  )
        71        C      tau(  71) = (   0.3191216   0.4115028   1.3010016  )
        72        N      tau(  72) = (   0.3370654   0.4094098   1.8205488  )
        73        N      tau(  73) = (   0.3137105   0.4135168   1.1704857  )
        74        H      tau(  74) = (   0.3568680   0.4838861   1.1192130  )
        75        H      tau(  75) = (   0.2662672   0.3451063   1.1203705  )
        76        H      tau(  76) = (   0.2165898   0.2357330   1.5578041  )
        77        H      tau(  77) = (   0.4416929   0.5820615   1.5523766  )
        78        H      tau(  78) = (   0.4329958   0.5847339   1.3161421  )
        79        H      tau(  79) = (   0.2070538   0.2375425   1.3214015  )

   Crystallographic axes

     site n.     atom                  positions (cryst. coord.)
         1        Zn     tau(   1) = (  0.0833333  0.1666667  0.0513044  )
         2        Zn     tau(   2) = (  0.5833333  0.1666667  0.0513044  )
         3        Zn     tau(   3) = (  0.0834625  0.1667124  0.2599187  )
         4        Zn     tau(   4) = (  0.5832446  0.1666976  0.2605806  )
[...]
     atom   57 type  1   force =     0.00000000    0.00000000    0.00000000
     atom   58 type  1   force =     0.00000000    0.00000000    0.00000000
     atom   59 type  1   force =     0.00000000    0.00000000    0.00000000
     atom   60 type  1   force =     0.00000000    0.00000000    0.00000000
[...]
     atom   65 type  2   force =    -0.00012921    0.00005748    0.01679417
     atom   66 type  2   force =     0.00298358    0.00069408   -0.00586946
     atom   67 type  2   force =    -0.00146459    0.00021968   -0.00007014
     atom   68 type  2   force =    -0.00120534   -0.00036878   -0.00516057
     atom   69 type  2   force =     0.00168599    0.00058868    0.00541568
     atom   70 type  2   force =     0.00009304   -0.00087569   -0.00128943
     atom   71 type  2   force =    -0.00068651   -0.00109072   -0.00209705
     atom   72 type  3   force =     0.00033787    0.00009559    0.01149723
     atom   73 type  3   force =     0.00000076    0.00001105   -0.00061264
     atom   74 type  4   force =     0.00000000    0.00000000    0.00000000
     atom   75 type  4   force =     0.00000000    0.00000000    0.00000000
     atom   76 type  4   force =     0.00000000    0.00000000    0.00000000
     atom   77 type  4   force =     0.00000000    0.00000000    0.00000000
     atom   78 type  4   force =     0.00000000    0.00000000    0.00000000
     atom   79 type  4   force =     0.00000000    0.00000000    0.00000000
     The Hubbard contrib.    to forces
     atom    1 type  1   force =     0.00000000    0.00000000    0.00000000
     atom    2 type  1   force =     0.00000000    0.00000000    0.00000000
     atom    3 type  1   force =     0.00000000    0.00000000    0.00000000
     atom    4 type  1   force =     0.00000000    0.00000000    0.00000000
     atom    5 type  1   force =     0.00000000    0.00000000    0.00000000
     atom    6 type  1   force =     0.00000000    0.00000000    0.00000000
     atom    7 type  1   force =     0.00000000    0.00000000    0.00000000
     atom    8 type  1   force =     0.00000000    0.00000000    0.00000000
     atom    9 type  1   force =     0.00000000    0.00000000    0.00000000
     atom   10 type  1   force =     0.00000000    0.00000000    0.00000000
     atom   11 type  1   force =     0.00000000    0.00000000    0.00000000
     atom   12 type  1   force =     0.00000000    0.00000000    0.00000000
     atom   13 type  1   force =     0.00000000    0.00000000    0.00000000
     atom   14 type  1   force =     0.00000000    0.00000000    0.00000000
     atom   15 type  1   force =     0.00000000    0.00000000    0.00000000
     atom   16 type  1   force =     0.00000000    0.00000000    0.00000000
     atom   17 type  1   force =     0.00000000    0.00000000    0.00000000
     atom   18 type  1   force =     0.00000000    0.00000000    0.00000000
     atom   19 type  1   force =     0.00000000    0.00000000    0.00000000
     atom   20 type  1   force =     0.00000000    0.00000000    0.00000000
     atom   21 type  1   force =     0.00000000    0.00000000    0.00000000
     atom   22 type  1   force =     0.00000000    0.00000000    0.00000000
     atom   23 type  1   force =     0.00000000    0.00000000    0.00000000
     atom   24 type  1   force =     0.00000000    0.00000000    0.00000000
     atom   25 type  1   force =     0.00000000    0.00000000    0.00000000
     atom   26 type  1   force =     0.00000000    0.00000000    0.00000000
     atom   27 type  1   force =     0.00000000    0.00000000    0.00000000
     atom   28 type  1   force =     0.00000000    0.00000000    0.00000000
     atom   29 type  1   force =     0.00000000    0.00000000    0.00000000
     atom   30 type  1   force =     0.00000000    0.00000000    0.00000000
     atom   31 type  1   force =     0.00000000    0.00000000    0.00000000
     atom   32 type  1   force =     0.00000000    0.00000000    0.00000000
     atom   33 type  1   force =     0.00000000    0.00000000    0.00000000
     atom   34 type  1   force =     0.00000000    0.00000000    0.00000000
     atom   35 type  1   force =     0.00000000    0.00000000    0.00000000
     atom   36 type  1   force =     0.00000000    0.00000000    0.00000000
     atom   37 type  1   force =     0.00000000    0.00000000    0.00000000
     atom   38 type  1   force =     0.00000000    0.00000000    0.00000000
     atom   39 type  1   force =     0.00000000    0.00000000    0.00000000
     atom   40 type  1   force =     0.00000000    0.00000000    0.00000000
     atom   41 type  1   force =     0.00000000    0.00000000    0.00000000
     atom   42 type  1   force =     0.00000000    0.00000000    0.00000000
     atom   43 type  1   force =     0.00000000    0.00000000    0.00000000
     atom   44 type  1   force =     0.00000000    0.00000000    0.00000000
     atom   45 type  1   force =     0.00000000    0.00000000    0.00000000
     atom   46 type  1   force =     0.00000000    0.00000000    0.00000000
     atom   47 type  1   force =     0.00000000    0.00000000    0.00000000
     atom   48 type  1   force =     0.00000000    0.00000000    0.00000000
     atom   49 type  1   force =     0.00000000    0.00000000    0.00000000
     atom   50 type  1   force =     0.00000000    0.00000000    0.00000000
     atom   51 type  1   force =     0.00000000    0.00000000    0.00000000
     atom   52 type  1   force =     0.00000000    0.00000000    0.00000000
     atom   53 type  1   force =     0.00000000    0.00000000    0.00000000
     atom   54 type  1   force =     0.00000000    0.00000000    0.00000000
     atom   55 type  1   force =     0.00000000    0.00000000    0.00000000
     atom   56 type  1   force =     0.00000000    0.00000000    0.00000000
     atom   57 type  1   force =     0.00000000    0.00000000    0.00000000
     atom   58 type  1   force =     0.00000000    0.00000000    0.00000000
     atom   59 type  1   force =     0.00000000    0.00000000    0.00000000
     atom   60 type  1   force =     0.00000000    0.00000000    0.00000000
[...]
     atom   65 type  2   force =     0.00000000    0.00000000    0.00000000
     atom   66 type  2   force =     0.00000000    0.00000000    0.00000000
     atom   67 type  2   force =     0.00000000    0.00000000    0.00000000
     atom   68 type  2   force =     0.00000000    0.00000000    0.00000000
     atom   69 type  2   force =     0.00000000    0.00000000    0.00000000
     atom   70 type  2   force =     0.00000000    0.00000000    0.00000000
     atom   71 type  2   force =     0.00000000    0.00000000    0.00000000
     atom   72 type  3   force =     0.00000000    0.00000000    0.00000000
     atom   73 type  3   force =     0.00000000    0.00000000    0.00000000
     atom   74 type  4   force =     0.00000000    0.00000000    0.00000000
     atom   75 type  4   force =     0.00000000    0.00000000    0.00000000
     atom   76 type  4   force =     0.00000000    0.00000000    0.00000000
     atom   77 type  4   force =     0.00000000    0.00000000    0.00000000
     atom   78 type  4   force =     0.00000000    0.00000000    0.00000000
     atom   79 type  4   force =     0.00000000    0.00000000    0.00000000
     The SCF correction term to forces
     atom    1 type  1   force =    -0.00040385   -0.00028521    0.00081323
     atom    2 type  1   force =     0.00040300   -0.00064328    0.00060081
     atom    3 type  1   force =    -0.00066382   -0.00050351   -0.00017029
     atom    4 type  1   force =     0.00067349   -0.00106956   -0.00004947
     atom    5 type  1   force =    -0.00028682   -0.00004398    0.00082178
     atom    6 type  1   force =     0.00026891   -0.00024975    0.00002062
     atom    7 type  1   force =    -0.00044380   -0.00013176   -0.00012661
     atom    8 type  1   force =     0.00043232   -0.00041281    0.00010282
     atom    9 type  1   force =     0.00030879    0.00023076    0.00089066
     atom   10 type  1   force =    -0.00030160    0.00066919    0.00022305
     atom   11 type  1   force =     0.00045935    0.00039397   -0.00018350
     atom   12 type  1   force =    -0.00046057    0.00115670    0.00003953
     atom   13 type  1   force =     0.00019198   -0.00001150    0.00086795
     atom   14 type  1   force =    -0.00019254    0.00032258    0.00080700
     atom   15 type  1   force =     0.00026173    0.00001609   -0.00021586
     atom   16 type  1   force =    -0.00025456    0.00053614   -0.00011593
     atom   17 type  1   force =    -0.00018101   -0.00083110    0.00049435
     atom   18 type  1   force =     0.00017356   -0.00009196    0.00093123
     atom   19 type  1   force =    -0.00035571   -0.00139883   -0.00005965
     atom   20 type  1   force =     0.00033949   -0.00016660   -0.00017318
     atom   21 type  1   force =    -0.00074032   -0.00017502    0.00027612
     atom   22 type  1   force =     0.00076217   -0.00011888    0.00056059
     atom   23 type  1   force =    -0.00126369   -0.00036450    0.00001666
     atom   24 type  1   force =     0.00128781   -0.00020115   -0.00003724
     atom   25 type  1   force =    -0.00064262    0.00035961    0.00070529
     atom   26 type  1   force =     0.00063044    0.00055760    0.00040046
     atom   27 type  1   force =    -0.00106881    0.00058592   -0.00009574
     atom   28 type  1   force =     0.00105634    0.00098268   -0.00003041
     atom   29 type  1   force =    -0.00005294   -0.00028712    0.00092938
     atom   30 type  1   force =     0.00005585    0.00059891    0.00076521
     atom   31 type  1   force =    -0.00013560   -0.00044209   -0.00019594
     atom   32 type  1   force =     0.00013284    0.00101693   -0.00014862
     atom   33 type  1   force =    -0.00036405   -0.00076346   -0.00039478
     atom   34 type  1   force =     0.00037284   -0.00025970   -0.00042594
     atom   35 type  1   force =    -0.00024170   -0.00044544   -0.00059299
     atom   36 type  1   force =     0.00024001   -0.00015491   -0.00060368
     atom   37 type  1   force =    -0.00103849   -0.00045740   -0.00048398
     atom   38 type  1   force =     0.00106724   -0.00074748   -0.00068719
     atom   39 type  1   force =    -0.00068103   -0.00027000   -0.00046610
     atom   40 type  1   force =     0.00070123   -0.00048448   -0.00010856
     atom   41 type  1   force =    -0.00043341    0.00030230   -0.00041562
     atom   42 type  1   force =     0.00042811    0.00073182   -0.00076151
     atom   43 type  1   force =    -0.00025540    0.00015213   -0.00063265
     atom   44 type  1   force =     0.00027820    0.00048145    0.00011246
     atom   45 type  1   force =     0.00023024   -0.00000960   -0.00032738
     atom   46 type  1   force =    -0.00023739    0.00120499   -0.00052931
     atom   47 type  1   force =     0.00016940   -0.00001936   -0.00077236
     atom   48 type  1   force =    -0.00017735    0.00076574   -0.00040361
     atom   49 type  1   force =     0.00009935   -0.00120493   -0.00049137
     atom   50 type  1   force =    -0.00010765    0.00016055   -0.00032958
     atom   51 type  1   force =     0.00010929   -0.00073363   -0.00048219
     atom   52 type  1   force =    -0.00010896    0.00012521   -0.00071562
     atom   53 type  1   force =    -0.00051391   -0.00092046   -0.00072816
     atom   54 type  1   force =     0.00049701   -0.00026935   -0.00042142
     atom   55 type  1   force =    -0.00033422   -0.00059566    0.00004494
     atom   56 type  1   force =     0.00030738   -0.00017847   -0.00060097
     atom   57 type  1   force =    -0.00119270    0.00058208   -0.00068939
     atom   58 type  1   force =     0.00119121    0.00047107   -0.00052660
     atom   59 type  1   force =    -0.00076862    0.00038055   -0.00012583
     atom   60 type  1   force =     0.00074450    0.00024052   -0.00041534
[...]
     atom   65 type  2   force =     0.00000469    0.00000068    0.00016607
     atom   66 type  2   force =    -0.00000434    0.00000179   -0.00012563
     atom   67 type  2   force =    -0.00006210   -0.00008526   -0.00014189
     atom   68 type  2   force =     0.00005104    0.00008858   -0.00014614
     atom   69 type  2   force =    -0.00001843   -0.00002429   -0.00004996
     atom   70 type  2   force =     0.00001435    0.00002617   -0.00005145
     atom   71 type  2   force =     0.00000203    0.00000056    0.00004537
     atom   72 type  3   force =     0.00000624    0.00000146    0.00021025
     atom   73 type  3   force =     0.00000314   -0.00000077    0.00015881
     atom   74 type  4   force =     0.00000355    0.00000591    0.00002160
     atom   75 type  4   force =    -0.00000383   -0.00000561    0.00002126
     atom   76 type  4   force =    -0.00000843   -0.00001229   -0.00001153
     atom   77 type  4   force =     0.00000737    0.00001220   -0.00001220
     atom   78 type  4   force =    -0.00000730   -0.00001135    0.00000603
     atom   79 type  4   force =     0.00000728    0.00001090    0.00000525

     Total force =     0.030951     Total SCF correction =     0.007596
     SCF correction compared to forces is large: reduce conv_thr to get better values

     Computing stress (Cartesian axis) and pressure

     negative rho (up, down):  3.563E-02 0.000E+00
          total   stress  (Ry/bohr**3)                   (kbar)     P=     -306.90
  -0.00208460  -0.00000082  -0.00000023         -306.66       -0.12       -0.03
  -0.00000082  -0.00208514  -0.00000025           -0.12     -306.73       -0.04
  -0.00000023  -0.00000025  -0.00208907           -0.03       -0.04     -307.31

     kinetic stress (kbar)  17261.68    -31.04     -2.83
                              -31.04  17234.32      1.31
                               -2.83      1.31  17280.71

     local   stress (kbar)**********   -841.23   -106.86
                             -841.23**********     42.94
                             -106.86     42.941454636.07

     nonloc. stress (kbar)  -1886.03      1.92      0.26
                                1.92  -1884.33     -0.09
                                0.26     -0.09  -1942.60

     hartree stress (kbar) 756013.13    317.36     41.99
                              317.36 756294.70    -16.56
                               41.99    -16.56-680474.59

     exc-cor stress (kbar)  -8416.96      1.45      0.14
                                1.45  -8415.68     -0.06
                                0.14     -0.06  -8424.17

     corecor stress (kbar)    -80.44     -0.69     -0.07
                               -0.69    -81.03      0.03
                               -0.07      0.03    -81.85

     ewald   stress (kbar) 675560.58    552.10     67.34
                              552.10 676049.51    -27.60
                               67.34    -27.60-781300.88

     hubbard stress (kbar)      0.00      0.00      0.00
                                0.00      0.00      0.00
                                0.00      0.00      0.00

     DFT-D   stress (kbar)      0.00      0.00      0.00
                                0.00      0.00      0.00
                                0.00      0.00      0.00

     XDM     stress (kbar)      0.00      0.00      0.00
                                0.00      0.00      0.00
                                0.00      0.00      0.00

     dft-nl  stress (kbar)      0.00      0.00      0.00
                                0.00      0.00      0.00
                                0.00      0.00      0.00

     TS-vdW  stress (kbar)      0.00      0.00      0.00
                                0.00      0.00      0.00
                                0.00      0.00      0.00

     MDB     stress (kbar)      0.00      0.00      0.00
                                0.00      0.00      0.00
                                0.00      0.00      0.00

     3D-RISM stress (kbar)      0.00      0.00      0.00
                                0.00      0.00      0.00
                                0.00      0.00      0.00

     Writing all to output data dir ./tmp/Zn002_4x4x2_primitive_14Avacumn_bridgesite_upright_parallel_ABN.save/ :
     XML data file, charge density, pseudopotentials, collected wavefunctions

     General routines

     Parallel routines

     PAW routines

   This run was terminated on:  19: 2:56  22Mar2025

   JOB DONE.
Note: The following floating-point exceptions are signalling: IEEE_DENORMAL
Note: The following floating-point exceptions are signalling: IEEE_DENORMAL
Note: The following floating-point exceptions are signalling: IEEE_DENORMAL
Note: The following floating-point exceptions are signalling: IEEE_DENORMAL
Note: The following floating-point exceptions are signalling: IEEE_DENORMAL
Note: The following floating-point exceptions are signalling: IEEE_DENORMAL
Note: The following floating-point exceptions are signalling: IEEE_DENORMAL