     Program PWSCF v.7.3.1 starts on 22Mar2025 at 15:40:47

     Waiting for input...
     Reading input from standard input
Warning: card &CELL ignored
Warning: card   CELL_DOFREE = 'ALL' ignored
Warning: card / ignored

     Current dimensions of program PWSCF are:
     Max number of different atomic species (ntypx) = 10
     Max number of k-points (npk) =  40000
     Max angular momentum in pseudopotentials (lmaxx) =  4
     file C.pbe-n-kjpaw_psl.1.0.0.UPF: wavefunction(s)  2S 2P renormalized

     R & G space division:  proc/nbgrp/npool/nimage =      16
     Subspace diagonalization in iterative solution of the eigenvalue problem:
     one sub-group per band group will be used

     Using Slab Decomposition

     bravais-lattice index     =            0
     lattice parameter (alat)  =      19.7617  a.u.
     unit-cell volume          =   15176.5939 (a.u.)^3
     number of atoms/cell      =           79
     number of atomic types    =            4
     number of electrons       =      1324.00
     number of Kohn-Sham states=          794
     kinetic-energy cutoff     =      30.0000  Ry
     charge density cutoff     =     120.0000  Ry
     scf convergence threshold =      7.3E-07
     mixing beta               =       0.7000
     number of iterations used =            8  plain     mixing
     Exchange-correlation= PBE
                           (   1   4   3   4   0   0   0)

     celldm(1)=  19.761696  celldm(2)=   0.000000  celldm(3)=   0.000000
     celldm(4)=   0.000000  celldm(5)=   0.000000  celldm(6)=   0.000000

     crystal axes: (cart. coord. in units of alat)
               a(1) = (   1.000000   0.000000   0.000000 )
               a(2) = (  -0.500000   0.866025   0.000000 )
               a(3) = (   0.000000   0.000000   2.270759 )

     reciprocal axes: (cart. coord. in units 2 pi/alat)
               b(1) = (  1.000000  0.577350 -0.000000 )
               b(2) = (  0.000000  1.154701  0.000000 )
               b(3) = (  0.000000 -0.000000  0.440381 )

     PseudoPot. # 1 for Zn read from file:
     /home/ys/qepseudo/SSSP_1.3.0_PBE_efficiency/Zn_pbe_v1.uspp.F.UPF
     MD5 check sum: df62231357ef9e81f77b2b3087fa5675
     Pseudo is Ultrasoft, Zval = 20.0
     Generated by new atomic code, or converted to UPF format
     Using radial grid of  943 points,  6 beta functions with:
                l(1) =   0
                l(2) =   0
                l(3) =   1
                l(4) =   1
                l(5) =   2
                l(6) =   2
     Q(r) pseudized with  8 coefficients,  rinner =    1.100   1.100   1.100
                                                       1.100   1.100

     PseudoPot. # 2 for C  read from file:
     /home/ys/qepseudo/SSSP_1.3.0_PBE_efficiency/C.pbe-n-kjpaw_psl.1.0.0.UPF
     MD5 check sum: 5d2aebdfa2cae82b50a7e79e9516da0f
     Pseudo is Projector augmented-wave + core cor, Zval =  4.0
     Generated using "atomic" code by A. Dal Corso  v.5.1
     Shape of augmentation charge: PSQ
     Using radial grid of 1073 points,  4 beta functions with:
                l(1) =   0
                l(2) =   0
                l(3) =   1
                l(4) =   1
     Q(r) pseudized with 0 coefficients

     PseudoPot. # 3 for N  read from file:
     /home/ys/qepseudo/SSSP_1.3.0_PBE_efficiency/N.pbe-n-radius_5.UPF
     MD5 check sum: 16739722b17309cd8fe442a2ace49922
     Pseudo is Ultrasoft + core correction, Zval =  5.0
     Generated using "atomic" code by A. Dal Corso  v.5.1
     Using radial grid of 1085 points,  4 beta functions with:
                l(1) =   0
                l(2) =   0
                l(3) =   1
                l(4) =   1
     Q(r) pseudized with 0 coefficients

     PseudoPot. # 4 for H  read from file:
     /home/ys/qepseudo/SSSP_1.3.0_PBE_efficiency/H.pbe-rrkjus_psl.1.0.0.UPF
     MD5 check sum: f52b6d4d1c606e5624b1dc7b2218f220
     Pseudo is Ultrasoft, Zval =  1.0
     Generated using "atomic" code by A. Dal Corso  v.5.1
     Using radial grid of  929 points,  2 beta functions with:
                l(1) =   0
                l(2) =   0
     Q(r) pseudized with 0 coefficients

     atomic species   valence    mass     pseudopotential
     Zn               20.00    65.38000     Zn( 1.00)
     C                 4.00    12.01070     C ( 1.00)
     N                 5.00    14.00670     N ( 1.00)
     H                 1.00     1.00800     H ( 1.00)

     No symmetry found

                                    s                        frac. trans.

      isym =  1     identity

 cryst.   s( 1) = (     1          0          0      )
                  (     0          1          0      )
                  (     0          0          1      )

 cart.    s( 1) = (  1.0000000  0.0000000  0.0000000 )
                  (  0.0000000  1.0000000  0.0000000 )
                  (  0.0000000  0.0000000  1.0000000 )

   Cartesian axes

     site n.     atom                  positions (alat units)
         1        Zn     tau(   1) = (  -0.0000000   0.1443376   0.1164999  )
         2        Zn     tau(   2) = (   0.5000000   0.1443376   0.1164999  )
         3        Zn     tau(   3) = (   0.0001063   0.1443772   0.5902127  )
         4        Zn     tau(   4) = (   0.4998958   0.1443643   0.5917156  )
         5        Zn     tau(   5) = (  -0.1250000   0.3608439   0.1164999  )
         6        Zn     tau(   6) = (   0.3750000   0.3608439   0.1164999  )
         7        Zn     tau(   7) = (  -0.1249761   0.3609302   0.5908726  )
         8        Zn     tau(   8) = (   0.3749642   0.3608477   0.5913644  )
         9        Zn     tau(   9) = (  -0.2500000   0.5773503   0.1164999  )
        10        Zn     tau(  10) = (   0.2500000   0.5773503   0.1164999  )
        11        Zn     tau(  11) = (  -0.2499911   0.5773738   0.5915504  )
        12        Zn     tau(  12) = (   0.2499824   0.5772583   0.5907382  )
        13        Zn     tau(  13) = (  -0.3750000   0.7938566   0.1164999  )
        14        Zn     tau(  14) = (   0.1250000   0.7938566   0.1164999  )
        15        Zn     tau(  15) = (  -0.3749161   0.7938269   0.5909604  )
        16        Zn     tau(  16) = (   0.1249053   0.7937898   0.5911170  )
        17        Zn     tau(  17) = (   0.2500000   0.1443376   0.1164999  )
        18        Zn     tau(  18) = (   0.7500000   0.1443376   0.1164999  )
        19        Zn     tau(  19) = (   0.2499566   0.1443139   0.5910485  )
        20        Zn     tau(  20) = (   0.7500401   0.1444360   0.5909256  )
        21        Zn     tau(  21) = (   0.1250000   0.3608439   0.1164999  )
        22        Zn     tau(  22) = (   0.6250000   0.3608439   0.1164999  )
        23        Zn     tau(  23) = (   0.1249684   0.3608327   0.5904686  )
        24        Zn     tau(  24) = (   0.6250220   0.3609386   0.5917101  )
        25        Zn     tau(  25) = (  -0.0000000   0.5773503   0.1164999  )
        26        Zn     tau(  26) = (   0.5000000   0.5773503   0.1164999  )
        27        Zn     tau(  27) = (  -0.0000983   0.5773031   0.5910657  )
        28        Zn     tau(  28) = (   0.5000885   0.5773473   0.5912976  )
        29        Zn     tau(  29) = (  -0.1250000   0.7938566   0.1164999  )
        30        Zn     tau(  30) = (   0.3750000   0.7938566   0.1164999  )
        31        Zn     tau(  31) = (  -0.1251014   0.7937984   0.5915674  )
        32        Zn     tau(  32) = (   0.3751324   0.7938157   0.5904624  )
        33        Zn     tau(  33) = (   0.1250000   0.0721688   0.3494996  )
        34        Zn     tau(  34) = (   0.6250000   0.0721688   0.3494996  )
        35        Zn     tau(  35) = (   0.1250976   0.0723078   0.8327302  )
        36        Zn     tau(  36) = (   0.6253336   0.0720262   0.8325286  )
        37        Zn     tau(  37) = (   0.0000000   0.2886751   0.3494996  )
        38        Zn     tau(  38) = (   0.5000000   0.2886751   0.3494996  )
        39        Zn     tau(  39) = (   0.0002605   0.2887230   0.8324759  )
        40        Zn     tau(  40) = (   0.5000185   0.2888500   0.8222816  )
        41        Zn     tau(  41) = (  -0.1250000   0.5051815   0.3494996  )
        42        Zn     tau(  42) = (   0.3750000   0.5051815   0.3494996  )
        43        Zn     tau(  43) = (  -0.1246995   0.5052162   0.8329296  )
        44        Zn     tau(  44) = (   0.3749749   0.5053363   0.8331073  )
        45        Zn     tau(  45) = (  -0.2500000   0.7216878   0.3494996  )
        46        Zn     tau(  46) = (   0.2500000   0.7216878   0.3494996  )
        47        Zn     tau(  47) = (  -0.2498680   0.7217556   0.8328129  )
        48        Zn     tau(  48) = (   0.2502219   0.7216908   0.8325092  )
        49        Zn     tau(  49) = (   0.3750000   0.0721688   0.3494996  )
        50        Zn     tau(  50) = (   0.8750000   0.0721688   0.3494996  )
        51        Zn     tau(  51) = (   0.3749501   0.0719756   0.8310087  )
        52        Zn     tau(  52) = (   0.8752068   0.0722307   0.8324498  )
        53        Zn     tau(  53) = (   0.2500000   0.2886751   0.3494996  )
        54        Zn     tau(  54) = (   0.7500000   0.2886751   0.3494996  )
        55        Zn     tau(  55) = (   0.2500012   0.2888721   0.8330127  )
        56        Zn     tau(  56) = (   0.7504211   0.2886925   0.8325905  )
        57        Zn     tau(  57) = (   0.1250000   0.5051815   0.3494996  )
        58        Zn     tau(  58) = (   0.6250000   0.5051815   0.3494996  )
        59        Zn     tau(  59) = (   0.1252168   0.5052210   0.8326684  )
        60        Zn     tau(  60) = (   0.6252512   0.5055055   0.8316787  )
[...]
        65        C      tau(  65) = (   0.5904981   0.2283912   1.6731445  )
        66        C      tau(  66) = (   0.5698895   0.2404519   1.5391412  )
        67        C      tau(  67) = (   0.5014263   0.1458033   1.4714414  )
        68        C      tau(  68) = (   0.6172452   0.3472291   1.4714026  )
        69        C      tau(  69) = (   0.5956323   0.3596281   1.3413489  )
        70        C      tau(  70) = (   0.4800317   0.1579701   1.3413588  )
        71        C      tau(  71) = (   0.5259692   0.2655781   1.2736714  )
        72        N      tau(  72) = (   0.6074609   0.2181130   1.7836931  )
        73        N      tau(  73) = (   0.4980687   0.2814406   1.1463215  )
        74        H      tau(  74) = (   0.5495944   0.3461654   1.0946919  )
        75        H      tau(  75) = (   0.4681946   0.2042512   1.0947269  )
        76        H      tau(  76) = (   0.4649053   0.0624605   1.5229664  )
        77        H      tau(  77) = (   0.6708181   0.4209701   1.5227006  )
        78        H      tau(  78) = (   0.6319213   0.4435592   1.2902875  )
        79        H      tau(  79) = (   0.4263117   0.0839705   1.2903085  )

   Crystallographic axes

     site n.     atom                  positions (cryst. coord.)
         1        Zn     tau(   1) = (  0.0833333  0.1666667  0.0513044  )
         2        Zn     tau(   2) = (  0.5833333  0.1666667  0.0513044  )
         3        Zn     tau(   3) = (  0.0834625  0.1667124  0.2599187  )
         4        Zn     tau(   4) = (  0.5832446  0.1666976  0.2605806  )
[...]
     atom   54 type  1   force =     0.00000000    0.00000000    0.00000000
     atom   55 type  1   force =     0.00000000    0.00000000    0.00000000
     atom   56 type  1   force =     0.00000000    0.00000000    0.00000000
     atom   57 type  1   force =     0.00000000    0.00000000    0.00000000
     atom   58 type  1   force =     0.00000000    0.00000000    0.00000000
     atom   59 type  1   force =     0.00000000    0.00000000    0.00000000
     atom   60 type  1   force =     0.00000000    0.00000000    0.00000000
[...]
     atom   65 type  2   force =     0.00047362   -0.00033103    0.00947428
     atom   66 type  2   force =    -0.00038316   -0.00012758    0.00071092
     atom   67 type  2   force =    -0.00227396   -0.00219767   -0.00711711
     atom   68 type  2   force =     0.00090920    0.00281378   -0.00703499
     atom   69 type  2   force =     0.00197313    0.00168882    0.00420257
     atom   70 type  2   force =    -0.00069455   -0.00209727    0.00425940
     atom   71 type  2   force =     0.00280899   -0.00158985   -0.00184350
     atom   72 type  3   force =     0.00176328   -0.00107452    0.01133682
     atom   73 type  3   force =    -0.00514125    0.00294299   -0.00029377
     atom   74 type  4   force =     0.00000000    0.00000000    0.00000000
     atom   75 type  4   force =     0.00000000    0.00000000    0.00000000
     atom   76 type  4   force =     0.00000000    0.00000000    0.00000000
     atom   77 type  4   force =     0.00000000    0.00000000    0.00000000
     atom   78 type  4   force =     0.00000000    0.00000000    0.00000000
     atom   79 type  4   force =     0.00000000    0.00000000    0.00000000
     The Hubbard contrib.    to forces
     atom    1 type  1   force =     0.00000000    0.00000000    0.00000000
     atom    2 type  1   force =     0.00000000    0.00000000    0.00000000
     atom    3 type  1   force =     0.00000000    0.00000000    0.00000000
     atom    4 type  1   force =     0.00000000    0.00000000    0.00000000
     atom    5 type  1   force =     0.00000000    0.00000000    0.00000000
     atom    6 type  1   force =     0.00000000    0.00000000    0.00000000
     atom    7 type  1   force =     0.00000000    0.00000000    0.00000000
     atom    8 type  1   force =     0.00000000    0.00000000    0.00000000
     atom    9 type  1   force =     0.00000000    0.00000000    0.00000000
     atom   10 type  1   force =     0.00000000    0.00000000    0.00000000
     atom   11 type  1   force =     0.00000000    0.00000000    0.00000000
     atom   12 type  1   force =     0.00000000    0.00000000    0.00000000
     atom   13 type  1   force =     0.00000000    0.00000000    0.00000000
     atom   14 type  1   force =     0.00000000    0.00000000    0.00000000
     atom   15 type  1   force =     0.00000000    0.00000000    0.00000000
     atom   16 type  1   force =     0.00000000    0.00000000    0.00000000
     atom   17 type  1   force =     0.00000000    0.00000000    0.00000000
     atom   18 type  1   force =     0.00000000    0.00000000    0.00000000
     atom   19 type  1   force =     0.00000000    0.00000000    0.00000000
     atom   20 type  1   force =     0.00000000    0.00000000    0.00000000
     atom   21 type  1   force =     0.00000000    0.00000000    0.00000000
     atom   22 type  1   force =     0.00000000    0.00000000    0.00000000
     atom   23 type  1   force =     0.00000000    0.00000000    0.00000000
     atom   24 type  1   force =     0.00000000    0.00000000    0.00000000
     atom   25 type  1   force =     0.00000000    0.00000000    0.00000000
     atom   26 type  1   force =     0.00000000    0.00000000    0.00000000
     atom   27 type  1   force =     0.00000000    0.00000000    0.00000000
     atom   28 type  1   force =     0.00000000    0.00000000    0.00000000
     atom   29 type  1   force =     0.00000000    0.00000000    0.00000000
     atom   30 type  1   force =     0.00000000    0.00000000    0.00000000
     atom   31 type  1   force =     0.00000000    0.00000000    0.00000000
     atom   32 type  1   force =     0.00000000    0.00000000    0.00000000
     atom   33 type  1   force =     0.00000000    0.00000000    0.00000000
     atom   34 type  1   force =     0.00000000    0.00000000    0.00000000
     atom   35 type  1   force =     0.00000000    0.00000000    0.00000000
     atom   36 type  1   force =     0.00000000    0.00000000    0.00000000
     atom   37 type  1   force =     0.00000000    0.00000000    0.00000000
     atom   38 type  1   force =     0.00000000    0.00000000    0.00000000
     atom   39 type  1   force =     0.00000000    0.00000000    0.00000000
     atom   40 type  1   force =     0.00000000    0.00000000    0.00000000
     atom   41 type  1   force =     0.00000000    0.00000000    0.00000000
     atom   42 type  1   force =     0.00000000    0.00000000    0.00000000
     atom   43 type  1   force =     0.00000000    0.00000000    0.00000000
     atom   44 type  1   force =     0.00000000    0.00000000    0.00000000
     atom   45 type  1   force =     0.00000000    0.00000000    0.00000000
     atom   46 type  1   force =     0.00000000    0.00000000    0.00000000
     atom   47 type  1   force =     0.00000000    0.00000000    0.00000000
     atom   48 type  1   force =     0.00000000    0.00000000    0.00000000
     atom   49 type  1   force =     0.00000000    0.00000000    0.00000000
     atom   50 type  1   force =     0.00000000    0.00000000    0.00000000
     atom   51 type  1   force =     0.00000000    0.00000000    0.00000000
     atom   52 type  1   force =     0.00000000    0.00000000    0.00000000
     atom   53 type  1   force =     0.00000000    0.00000000    0.00000000
     atom   54 type  1   force =     0.00000000    0.00000000    0.00000000
     atom   55 type  1   force =     0.00000000    0.00000000    0.00000000
     atom   56 type  1   force =     0.00000000    0.00000000    0.00000000
     atom   57 type  1   force =     0.00000000    0.00000000    0.00000000
     atom   58 type  1   force =     0.00000000    0.00000000    0.00000000
     atom   59 type  1   force =     0.00000000    0.00000000    0.00000000
     atom   60 type  1   force =     0.00000000    0.00000000    0.00000000
[...]
     atom   65 type  2   force =     0.00000000    0.00000000    0.00000000
     atom   66 type  2   force =     0.00000000    0.00000000    0.00000000
     atom   67 type  2   force =     0.00000000    0.00000000    0.00000000
     atom   68 type  2   force =     0.00000000    0.00000000    0.00000000
     atom   69 type  2   force =     0.00000000    0.00000000    0.00000000
     atom   70 type  2   force =     0.00000000    0.00000000    0.00000000
     atom   71 type  2   force =     0.00000000    0.00000000    0.00000000
     atom   72 type  3   force =     0.00000000    0.00000000    0.00000000
     atom   73 type  3   force =     0.00000000    0.00000000    0.00000000
     atom   74 type  4   force =     0.00000000    0.00000000    0.00000000
     atom   75 type  4   force =     0.00000000    0.00000000    0.00000000
     atom   76 type  4   force =     0.00000000    0.00000000    0.00000000
     atom   77 type  4   force =     0.00000000    0.00000000    0.00000000
     atom   78 type  4   force =     0.00000000    0.00000000    0.00000000
     atom   79 type  4   force =     0.00000000    0.00000000    0.00000000
     The SCF correction term to forces
     atom    1 type  1   force =     0.00008268   -0.00009876    0.00087221
     atom    2 type  1   force =    -0.00007856   -0.00052638    0.00024894
     atom    3 type  1   force =     0.00023236   -0.00027489   -0.00029190
     atom    4 type  1   force =    -0.00022867   -0.00084350    0.00009432
     atom    5 type  1   force =     0.00063485    0.00016334    0.00075795
     atom    6 type  1   force =    -0.00063000    0.00039463    0.00032452
     atom    7 type  1   force =     0.00085862    0.00041929   -0.00022544
     atom    8 type  1   force =    -0.00085905    0.00055061    0.00007892
     atom    9 type  1   force =     0.00034518    0.00038150    0.00081592
     atom   10 type  1   force =    -0.00034824    0.00028351    0.00083105
     atom   11 type  1   force =     0.00050605    0.00070682   -0.00020253
     atom   12 type  1   force =    -0.00050831    0.00042383   -0.00024621
     atom   13 type  1   force =    -0.00017383    0.00006600    0.00093326
     atom   14 type  1   force =     0.00020560   -0.00064924    0.00074511
     atom   15 type  1   force =    -0.00011080    0.00000789   -0.00026482
     atom   16 type  1   force =     0.00012153   -0.00098409   -0.00021682
     atom   17 type  1   force =    -0.00070588   -0.00025943    0.00063191
     atom   18 type  1   force =     0.00069990   -0.00038692    0.00052722
     atom   19 type  1   force =    -0.00101282   -0.00058703   -0.00009191
     atom   20 type  1   force =     0.00100554   -0.00055373   -0.00010678
     atom   21 type  1   force =    -0.00043273    0.00018418    0.00081934
     atom   22 type  1   force =     0.00043304    0.00037210    0.00027033
     atom   23 type  1   force =    -0.00064198    0.00027263   -0.00024066
     atom   24 type  1   force =     0.00064384    0.00069053    0.00008267
     atom   25 type  1   force =     0.00011674   -0.00008397    0.00096086
     atom   26 type  1   force =    -0.00011255    0.00073777    0.00066672
     atom   27 type  1   force =    -0.00002953   -0.00000949   -0.00033329
     atom   28 type  1   force =     0.00002620    0.00115996   -0.00011373
     atom   29 type  1   force =    -0.00017304   -0.00053319    0.00079260
     atom   30 type  1   force =     0.00014235   -0.00004794    0.00088314
     atom   31 type  1   force =    -0.00038554   -0.00086303   -0.00018711
     atom   32 type  1   force =     0.00037394   -0.00010731   -0.00029849
     atom   33 type  1   force =    -0.00048174   -0.00033035   -0.00042425
     atom   34 type  1   force =     0.00053621   -0.00107996   -0.00069440
     atom   35 type  1   force =    -0.00018483   -0.00022010   -0.00060358
     atom   36 type  1   force =     0.00021417   -0.00055161   -0.00012663
     atom   37 type  1   force =     0.00017151    0.00009393   -0.00051521
     atom   38 type  1   force =    -0.00016512    0.00015652   -0.00080181
     atom   39 type  1   force =     0.00012470    0.00004913   -0.00053945
     atom   40 type  1   force =    -0.00013051    0.00011206    0.00016668
     atom   41 type  1   force =     0.00060154    0.00040305   -0.00042347
     atom   42 type  1   force =    -0.00064943    0.00103294   -0.00067724
     atom   43 type  1   force =     0.00025968    0.00026957   -0.00060650
     atom   44 type  1   force =    -0.00028542    0.00049883   -0.00029939
     atom   45 type  1   force =    -0.00005838   -0.00003154   -0.00034590
     atom   46 type  1   force =     0.00005937   -0.00022649   -0.00051254
     atom   47 type  1   force =    -0.00004190   -0.00000800   -0.00066188
     atom   48 type  1   force =     0.00004651   -0.00014819   -0.00054080
     atom   49 type  1   force =    -0.00074638   -0.00102078   -0.00060637
     atom   50 type  1   force =     0.00068593   -0.00040339   -0.00052384
     atom   51 type  1   force =    -0.00042506   -0.00054369   -0.00025567
     atom   52 type  1   force =     0.00039390   -0.00023240   -0.00048623
     atom   53 type  1   force =    -0.00121190    0.00011228   -0.00068746
     atom   54 type  1   force =     0.00119849    0.00013824   -0.00068661
     atom   55 type  1   force =    -0.00057230    0.00003170   -0.00028233
     atom   56 type  1   force =     0.00057761    0.00012286   -0.00014488
     atom   57 type  1   force =    -0.00046255    0.00027401   -0.00049811
     atom   58 type  1   force =     0.00050999    0.00116237   -0.00058871
     atom   59 type  1   force =    -0.00022256    0.00013386   -0.00061873
     atom   60 type  1   force =     0.00025444    0.00063529   -0.00028856
[...]
     atom   65 type  2   force =     0.00002186   -0.00001282    0.00014810
     atom   66 type  2   force =    -0.00002294    0.00001335   -0.00014547
     atom   67 type  2   force =    -0.00007466   -0.00007244   -0.00015669
     atom   68 type  2   force =     0.00002499    0.00010094   -0.00015675
     atom   69 type  2   force =    -0.00003252   -0.00003869   -0.00005107
     atom   70 type  2   force =     0.00001697    0.00004776   -0.00005106
     atom   71 type  2   force =     0.00001101   -0.00000606    0.00005198
     atom   72 type  3   force =     0.00003076   -0.00001857    0.00020275
     atom   73 type  3   force =     0.00002171   -0.00001233    0.00016786
     atom   74 type  4   force =     0.00000533    0.00000483    0.00001973
     atom   75 type  4   force =    -0.00000141   -0.00000704    0.00001965
     atom   76 type  4   force =    -0.00000863   -0.00000926   -0.00001419
     atom   77 type  4   force =     0.00000359    0.00001203   -0.00001424
     atom   78 type  4   force =    -0.00000716   -0.00001403    0.00000562
     atom   79 type  4   force =     0.00000843    0.00001331    0.00000560

     Total force =     0.030837     Total SCF correction =     0.007031
     SCF correction compared to forces is large: reduce conv_thr to get better values

     Computing stress (Cartesian axis) and pressure

     negative rho (up, down):  3.567E-02 0.000E+00
          total   stress  (Ry/bohr**3)                   (kbar)     P=     -306.66
  -0.00208432  -0.00000145   0.00000006         -306.61       -0.21        0.01
  -0.00000145  -0.00208595  -0.00000021           -0.21     -306.85       -0.03
   0.00000006  -0.00000021  -0.00208360            0.01       -0.03     -306.51

     kinetic stress (kbar)  17262.51    -27.47    -11.45
                              -27.47  17230.35      6.64
                              -11.45      6.64  17284.18

     local   stress (kbar)**********   -745.69   -522.87
                             -745.69**********    303.89
                             -522.87    303.891458194.42

     nonloc. stress (kbar)  -1885.86      1.74      1.40
                                1.74  -1883.85     -0.82
                                1.40     -0.82  -1942.69

     hartree stress (kbar) 757712.76    280.75    207.19
                              280.75 758039.56   -120.41
                              207.19   -120.41-682229.19

     exc-cor stress (kbar)  -8417.06      1.30      0.67
                                1.30  -8415.54     -0.39
                                0.67     -0.39  -8424.32

     corecor stress (kbar)    -80.33     -0.65     -0.34
                               -0.65    -81.09      0.20
                               -0.34      0.20    -81.80

     ewald   stress (kbar) 677279.24    489.81    325.41
                              489.81 677850.24   -189.14
                              325.41   -189.14-783107.11

     hubbard stress (kbar)      0.00      0.00      0.00
                                0.00      0.00      0.00
                                0.00      0.00      0.00

     DFT-D   stress (kbar)      0.00      0.00      0.00
                                0.00      0.00      0.00
                                0.00      0.00      0.00

     XDM     stress (kbar)      0.00      0.00      0.00
                                0.00      0.00      0.00
                                0.00      0.00      0.00

     dft-nl  stress (kbar)      0.00      0.00      0.00
                                0.00      0.00      0.00
                                0.00      0.00      0.00

     TS-vdW  stress (kbar)      0.00      0.00      0.00
                                0.00      0.00      0.00
                                0.00      0.00      0.00

     MDB     stress (kbar)      0.00      0.00      0.00
                                0.00      0.00      0.00
                                0.00      0.00      0.00

     3D-RISM stress (kbar)      0.00      0.00      0.00
                                0.00      0.00      0.00
                                0.00      0.00      0.00

     Writing all to output data dir ./tmp/Zn002_4x4x2_primitive_14Avacumn_topsite_upright_ABN.save/ :
     XML data file, charge density, pseudopotentials, collected wavefunctions

     General routines

     Parallel routines

     PAW routines

   This run was terminated on:  19:21:47  22Mar2025

   JOB DONE.
Note: The following floating-point exceptions are signalling: IEEE_DENORMAL
Note: The following floating-point exceptions are signalling: IEEE_DENORMAL
Note: The following floating-point exceptions are signalling: IEEE_DENORMAL
Note: The following floating-point exceptions are signalling: IEEE_DENORMAL