     Program PWSCF v.7.3.1 starts on  7Apr2025 at  4:56:25

     Waiting for input...
     Reading input from standard input
Warning: card &CELL ignored
Warning: card   CELL_DOFREE = 'ALL' ignored
Warning: card / ignored

     Current dimensions of program PWSCF are:
     Max number of different atomic species (ntypx) = 10
     Max number of k-points (npk) =  40000
     Max angular momentum in pseudopotentials (lmaxx) =  4
     file C.pbe-n-kjpaw_psl.1.0.0.UPF: wavefunction(s)  2S 2P renormalized

     R & G space division:  proc/nbgrp/npool/nimage =      25
     Subspace diagonalization in iterative solution of the eigenvalue problem:
     one sub-group per band group will be used

     Using Slab Decomposition

     bravais-lattice index     =            0
     lattice parameter (alat)  =      20.9009  a.u.
     unit-cell volume          =   16846.7507 (a.u.)^3
     number of atoms/cell      =           63
     number of atomic types    =            4
     number of electrons       =      1004.00
     number of Kohn-Sham states=          602
     kinetic-energy cutoff     =      40.0000  Ry
     charge density cutoff     =     280.0000  Ry
     scf convergence threshold =      1.0E-06
     mixing beta               =       0.4000
     number of iterations used =            8  plain     mixing
     energy convergence thresh.=      1.0E-05
     force convergence thresh. =      5.0E-04
     Exchange-correlation= PBE
                           (   1   4   3   4   0   0   0)
     nstep                     =          500

     celldm(1)=  20.900943  celldm(2)=   0.000000  celldm(3)=   0.000000
     celldm(4)=   0.000000  celldm(5)=   0.000000  celldm(6)=   0.000000

     crystal axes: (cart. coord. in units of alat)
               a(1) = (   1.000000   0.000000   0.000000 )
               a(2) = (  -0.223489   0.918700   0.000000 )
               a(3) = (  -4.200249  -1.021781   2.008375 )

     reciprocal axes: (cart. coord. in units 2 pi/alat)
               b(1) = (  1.000000  0.243267  2.215131 )
               b(2) = ( -0.000000  1.088495  0.553783 )
               b(3) = (  0.000000 -0.000000  0.497915 )

     PseudoPot. # 1 for Zn read from file:
     /home/yongsang/Research/PSID_server_room/qe/[00]QE/qepseudo/SSSP_1.3.0_PBE_efficiency/Zn_pbe_v1.uspp.F.UPF
     MD5 check sum: df62231357ef9e81f77b2b3087fa5675
     Pseudo is Ultrasoft, Zval = 20.0
     Generated by new atomic code, or converted to UPF format
     Using radial grid of  943 points,  6 beta functions with:
                l(1) =   0
                l(2) =   0
                l(3) =   1
                l(4) =   1
                l(5) =   2
                l(6) =   2
     Q(r) pseudized with  8 coefficients,  rinner =    1.100   1.100   1.100
                                                       1.100   1.100

     PseudoPot. # 2 for N  read from file:
     /home/yongsang/Research/PSID_server_room/qe/[00]QE/qepseudo/SSSP_1.3.0_PBE_efficiency/N.pbe-n-radius_5.UPF
     MD5 check sum: 16739722b17309cd8fe442a2ace49922
     Pseudo is Ultrasoft + core correction, Zval =  5.0
     Generated using "atomic" code by A. Dal Corso  v.5.1
     Using radial grid of 1085 points,  4 beta functions with:
                l(1) =   0
                l(2) =   0
                l(3) =   1
                l(4) =   1
     Q(r) pseudized with 0 coefficients

     PseudoPot. # 3 for C  read from file:
     /home/yongsang/Research/PSID_server_room/qe/[00]QE/qepseudo/SSSP_1.3.0_PBE_efficiency/C.pbe-n-kjpaw_psl.1.0.0.UPF
     MD5 check sum: 5d2aebdfa2cae82b50a7e79e9516da0f
     Pseudo is Projector augmented-wave + core cor, Zval =  4.0
     Generated using "atomic" code by A. Dal Corso  v.5.1
     Shape of augmentation charge: PSQ
     Using radial grid of 1073 points,  4 beta functions with:
                l(1) =   0
                l(2) =   0
                l(3) =   1
                l(4) =   1
     Q(r) pseudized with 0 coefficients

     PseudoPot. # 4 for H  read from file:
     /home/yongsang/Research/PSID_server_room/qe/[00]QE/qepseudo/SSSP_1.3.0_PBE_efficiency/H.pbe-rrkjus_psl.1.0.0.UPF
     MD5 check sum: f52b6d4d1c606e5624b1dc7b2218f220
     Pseudo is Ultrasoft, Zval =  1.0
     Generated using "atomic" code by A. Dal Corso  v.5.1
     Using radial grid of  929 points,  2 beta functions with:
                l(1) =   0
                l(2) =   0
     Q(r) pseudized with 0 coefficients

     atomic species   valence    mass     pseudopotential
     Zn               20.00    65.38000     Zn( 1.00)
     N                 5.00    14.00674     N ( 1.00)
     C                 4.00    12.01070     C ( 1.00)
     H                 1.00     1.00794     H ( 1.00)

     No symmetry found

                                    s                        frac. trans.

      isym =  1     identity

 cryst.   s( 1) = (     1          0          0      )
                  (     0          1          0      )
                  (     0          0          1      )

 cart.    s( 1) = (  1.0000000  0.0000000  0.0000000 )
                  (  0.0000000  1.0000000  0.0000000 )
                  (  0.0000000  0.0000000  1.0000000 )

   Cartesian axes

     site n.     atom                  positions (alat units)
         1        Zn     tau(   1) = (  -0.0970639   0.0980210   0.1082940  )
         2        Zn     tau(   2) = (  -0.2088085   0.5573710   0.1082940  )
         3        Zn     tau(   3) = (  -0.3841783   0.0276661   0.3915357  )
         4        Zn     tau(   4) = (  -0.4975013   0.4863655   0.3921250  )
         5        Zn     tau(   5) = (  -0.7387509  -0.0613059   0.5255212  )
         6        Zn     tau(   6) = (  -0.8484303   0.3998618   0.5394218  )
         7        Zn     tau(   7) = (  -0.1529361   0.3276960   0.1082940  )
         8        Zn     tau(   8) = (  -0.2646808   0.7870460   0.1082940  )
         9        Zn     tau(   9) = (  -0.4412920   0.2571880   0.3918299  )
        10        Zn     tau(  10) = (  -0.5521884   0.7162065   0.3914206  )
        11        Zn     tau(  11) = (  -0.7964037   0.1676880   0.5235329  )
        12        Zn     tau(  12) = (  -0.9082651   0.6286234   0.5238137  )
        13        Zn     tau(  13) = (   0.4029362   0.0980210   0.1082940  )
        14        Zn     tau(  14) = (   0.2911915   0.5573710   0.1082940  )
        15        Zn     tau(  15) = (   0.0357593   0.0083534   0.3141105  )
        16        Zn     tau(  16) = (  -0.0756617   0.4684495   0.3113945  )
        17        Zn     tau(  17) = (  -0.1891338  -0.0458407   0.5112394  )
        18        Zn     tau(  18) = (  -0.3023918   0.4134394   0.5116221  )
        19        Zn     tau(  19) = (   0.3470638   0.3276960   0.1082940  )
        20        Zn     tau(  20) = (   0.2353192   0.7870460   0.1082940  )
        21        Zn     tau(  21) = (  -0.0192796   0.2371652   0.3116620  )
        22        Zn     tau(  22) = (  -0.1321587   0.6975933   0.3139508  )
        23        Zn     tau(  23) = (  -0.2459119   0.1829265   0.5112915  )
        24        Zn     tau(  24) = (  -0.3571907   0.6428752   0.5116539  )
        25        Zn     tau(  25) = (   0.1529361   0.0372043   0.0773528  )
        26        Zn     tau(  26) = (   0.0411915   0.4965543   0.0773528  )
        27        Zn     tau(  27) = (  -0.2029252  -0.0493673   0.2596974  )
        28        Zn     tau(  28) = (  -0.3161796   0.4094451   0.2588915  )
        29        Zn     tau(  29) = (  -0.5489747  -0.1350823   0.3965436  )
        30        Zn     tau(  30) = (  -0.6633466   0.3246777   0.4025993  )
        31        Zn     tau(  31) = (   0.0970639   0.2668793   0.0773528  )
        32        Zn     tau(  32) = (  -0.0146808   0.7262293   0.0773528  )
        33        Zn     tau(  33) = (  -0.2594833   0.1804782   0.2590221  )
        34        Zn     tau(  34) = (  -0.3711355   0.6391650   0.2596525  )
        35        Zn     tau(  35) = (  -0.6051717   0.0949705   0.3965836  )
        36        Zn     tau(  36) = (  -0.7185347   0.5536050   0.4022109  )
        37        Zn     tau(  37) = (   0.6529362   0.0372043   0.0773528  )
        38        Zn     tau(  38) = (   0.5411915   0.4965543   0.0773528  )
        39        Zn     tau(  39) = (   0.2678599  -0.0571198   0.2647582  )
        40        Zn     tau(  40) = (   0.1575239   0.4027963   0.2657163  )
        41        Zn     tau(  41) = (   0.0363712  -0.1122109   0.5273125  )
        42        Zn     tau(  42) = (  -0.0769655   0.3469096   0.5173944  )
        43        Zn     tau(  43) = (   0.5970639   0.2668793   0.0773528  )
        44        Zn     tau(  44) = (   0.4853193   0.7262293   0.0773528  )
        45        Zn     tau(  45) = (   0.2142579   0.1735531   0.2644197  )
        46        Zn     tau(  46) = (   0.1021676   0.6321218   0.2643890  )
        47        Zn     tau(  47) = (  -0.0200314   0.1185088   0.5286339  )
        48        Zn     tau(  48) = (  -0.1315100   0.5757355   0.5275155  )
        49        C      tau(  49) = (  -0.5335478   0.4978512   1.1178818  )
        50        C      tau(  50) = (  -0.6218451   0.4702779   1.0280565  )
        51        C      tau(  51) = (  -0.7002687   0.5605818   0.9845469  )
        52        C      tau(  52) = (  -0.6323555   0.3520408   0.9821698  )
        53        C      tau(  53) = (  -0.7872961   0.5329179   0.8984841  )
        54        C      tau(  54) = (  -0.7194668   0.3246295   0.8961107  )
        55        C      tau(  55) = (  -0.7990477   0.4143652   0.8541204  )
        56        N      tau(  56) = (  -0.4614252   0.5208591   1.1914331  )
        57        N      tau(  57) = (  -0.8847795   0.3874063   0.7652865  )
        58        H      tau(  58) = (  -0.9112565   0.2992203   0.7601582  )
        59        H      tau(  59) = (  -0.9569909   0.4444842   0.7607849  )
        60        H      tau(  60) = (  -0.5717019   0.2818601   1.0152441  )
        61        H      tau(  61) = (  -0.6925083   0.6523372   1.0196934  )
        62        H      tau(  62) = (  -0.7264763   0.2328732   0.8607815  )
        63        H      tau(  63) = (  -0.8474464   0.6035663   0.8651773  )

     DFT-D3 Dispersion Correction (3-body terms):
       Reference C6 values for interpolation:

         atom   Coordination number   C6
         H          0.912             6.05
         H          0.000            15.18
         C          0.000            98.23
         C          0.987            86.49
         C          1.998            58.72
         C          2.999            51.56
         C          3.984            36.41
         N          0.000            50.54
         N          0.994            44.25
         N          2.014            39.35
         N          2.990            31.16
         Zn         0.000           681.04
         Zn         1.942           306.91

       Values used:

         atom   Coordination number  R0_AB[au]  C6      C8
         Zn         6.286            3.053    306.91  23930.67
         Zn         6.284            3.053    306.91  23930.67
         Zn         6.997            3.053    306.91  23930.67
         Zn         6.969            3.053    306.91  23930.67
[...]
     atom   18 type  1   force =     0.00003803   -0.00000624    0.00007746
     atom   19 type  1   force =    -0.00000000    0.00000000   -0.00000000
     atom   20 type  1   force =    -0.00000000   -0.00000000   -0.00000000
     atom   21 type  1   force =     0.00002216    0.00000443   -0.00002554
     atom   22 type  1   force =     0.00003551    0.00001290   -0.00000246
     atom   23 type  1   force =     0.00004999   -0.00002333    0.00006949
     atom   24 type  1   force =     0.00002695    0.00003554    0.00008363
     atom   25 type  1   force =    -0.00000000    0.00000000   -0.00000000
     atom   26 type  1   force =    -0.00000000   -0.00000000   -0.00000000
     atom   27 type  1   force =     0.00004373    0.00003640    0.00000270
     atom   28 type  1   force =     0.00006027   -0.00001044   -0.00004694
     atom   29 type  1   force =    -0.00003335   -0.00002223    0.00006655
     atom   30 type  1   force =    -0.00005125   -0.00000066    0.00005778
     atom   31 type  1   force =    -0.00000000    0.00000000   -0.00000000
     atom   32 type  1   force =    -0.00000000   -0.00000000   -0.00000000
     atom   33 type  1   force =     0.00006592    0.00001108   -0.00002625
     atom   34 type  1   force =     0.00003837    0.00001510   -0.00001857
     atom   35 type  1   force =    -0.00003620   -0.00001497    0.00006968
     atom   36 type  1   force =    -0.00004787   -0.00000465    0.00005247
     atom   37 type  1   force =     0.00000000    0.00000000   -0.00000000
     atom   38 type  1   force =     0.00000000   -0.00000000   -0.00000000
     atom   39 type  1   force =    -0.00004099   -0.00001329   -0.00001791
     atom   40 type  1   force =    -0.00004676   -0.00000687   -0.00004093
     atom   41 type  1   force =     0.00000743    0.00003043    0.00007040
     atom   42 type  1   force =     0.00002387   -0.00002722    0.00004156
     atom   43 type  1   force =     0.00000000    0.00000000   -0.00000000
     atom   44 type  1   force =     0.00000000   -0.00000000   -0.00000000
     atom   45 type  1   force =    -0.00006212    0.00000827   -0.00002448
     atom   46 type  1   force =    -0.00002880   -0.00002806   -0.00003244
     atom   47 type  1   force =     0.00001009   -0.00000860    0.00005140
     atom   48 type  1   force =     0.00003164    0.00001389    0.00007009
     atom   49 type  3   force =    -0.00000866   -0.00000313   -0.00001673
     atom   50 type  3   force =     0.00000019    0.00000010    0.00000263
     atom   51 type  3   force =     0.00000233   -0.00000827   -0.00000044
     atom   52 type  3   force =    -0.00000486    0.00000633   -0.00000033
     atom   53 type  3   force =    -0.00000109   -0.00000131    0.00000319
     atom   54 type  3   force =    -0.00000395    0.00000174    0.00000527
     atom   55 type  3   force =     0.00000175   -0.00000215    0.00000814
     atom   56 type  2   force =    -0.00000200   -0.00000120   -0.00002304
     atom   57 type  2   force =    -0.00000649   -0.00000149   -0.00001201
     atom   58 type  4   force =    -0.00000042   -0.00000043   -0.00000093
     atom   59 type  4   force =    -0.00000015   -0.00000019   -0.00000129
     atom   60 type  4   force =    -0.00000043    0.00000061   -0.00000017
     atom   61 type  4   force =     0.00000049   -0.00000002    0.00000006
     atom   62 type  4   force =    -0.00000094    0.00000053    0.00000077
     atom   63 type  4   force =     0.00000012   -0.00000058    0.00000052

     DFT-D3 dispersion contribution to forces:
     atom    1 type  1   force =    -0.00076342   -0.00015685    0.00282963
     atom    2 type  1   force =    -0.00074130   -0.00021093    0.00282295
     atom    3 type  1   force =    -0.00119417   -0.00029754   -0.00264502
     atom    4 type  1   force =    -0.00128019   -0.00033005   -0.00259158
     atom    5 type  1   force =     0.00082132    0.00031203   -0.00146420
     atom    6 type  1   force =     0.00032000    0.00019654   -0.00176097
     atom    7 type  1   force =    -0.00075587   -0.00018769    0.00284677
     atom    8 type  1   force =    -0.00076605   -0.00018169    0.00277599
     atom    9 type  1   force =    -0.00125980   -0.00027804   -0.00260843
     atom   10 type  1   force =    -0.00122473   -0.00034388   -0.00264131
     atom   11 type  1   force =     0.00076788    0.00114521   -0.00046900
     atom   12 type  1   force =     0.00107585   -0.00044412   -0.00049157
     atom   13 type  1   force =     0.00061582    0.00013731    0.00293314
     atom   14 type  1   force =     0.00060107    0.00019141    0.00294783
     atom   15 type  1   force =    -0.00036623   -0.00017168   -0.00088997
     atom   16 type  1   force =     0.00012298   -0.00025212   -0.00023983
     atom   17 type  1   force =    -0.00016299   -0.00002113   -0.00262233
     atom   18 type  1   force =    -0.00004972   -0.00002213   -0.00248014
     atom   19 type  1   force =     0.00062352    0.00012333    0.00295893
     atom   20 type  1   force =     0.00060057    0.00017979    0.00292911
     atom   21 type  1   force =    -0.00000682    0.00024408   -0.00025712
     atom   22 type  1   force =    -0.00038172   -0.00005794   -0.00086817
     atom   23 type  1   force =    -0.00001312    0.00002432   -0.00255634
     atom   24 type  1   force =    -0.00020177   -0.00007992   -0.00255043
     atom   25 type  1   force =     0.00060154    0.00011621    0.00277522
     atom   26 type  1   force =     0.00053155    0.00015355    0.00279301
     atom   27 type  1   force =     0.00076071    0.00019279    0.00188518
     atom   28 type  1   force =     0.00074481    0.00018158    0.00184976
     atom   29 type  1   force =     0.00075408    0.00016322   -0.00192661
     atom   30 type  1   force =     0.00044127    0.00023027   -0.00149317
     atom   31 type  1   force =     0.00054384    0.00011131    0.00279406
     atom   32 type  1   force =     0.00058427    0.00018079    0.00277011
     atom   33 type  1   force =     0.00071569    0.00018389    0.00185635
     atom   34 type  1   force =     0.00077595    0.00020866    0.00188215
     atom   35 type  1   force =     0.00073803    0.00022042   -0.00190242
     atom   36 type  1   force =     0.00052858   -0.00000282   -0.00153551
     atom   37 type  1   force =     0.00035666    0.00009748    0.00256521
     atom   38 type  1   force =     0.00037227    0.00007840    0.00259008
     atom   39 type  1   force =    -0.00109198   -0.00028470    0.00157744
     atom   40 type  1   force =    -0.00094646   -0.00024558    0.00139834
     atom   41 type  1   force =    -0.00042112   -0.00020168   -0.00440799
     atom   42 type  1   force =     0.00035868   -0.00001878   -0.00354692
     atom   43 type  1   force =     0.00038362    0.00007609    0.00256435
     atom   44 type  1   force =     0.00034816    0.00010015    0.00258159
     atom   45 type  1   force =    -0.00101385   -0.00018688    0.00173247
     atom   46 type  1   force =    -0.00098015   -0.00030669    0.00171105
     atom   47 type  1   force =     0.00004718    0.00046744   -0.00377717
     atom   48 type  1   force =     0.00024966   -0.00056431   -0.00379024
     atom   49 type  3   force =     0.00008189    0.00002590   -0.00004224
     atom   50 type  3   force =    -0.00004560   -0.00001235   -0.00021108
     atom   51 type  3   force =    -0.00003747    0.00018044   -0.00025314
     atom   52 type  3   force =     0.00008011   -0.00016070   -0.00025660
     atom   53 type  3   force =    -0.00011846    0.00026119   -0.00073910
     atom   54 type  3   force =     0.00004856   -0.00026267   -0.00075043
     atom   55 type  3   force =    -0.00020906   -0.00005482   -0.00107146
     atom   56 type  2   force =    -0.00022000   -0.00007299   -0.00014735
     atom   57 type  2   force =    -0.00045942   -0.00012530   -0.00134312
     atom   58 type  4   force =    -0.00032075   -0.00018815   -0.00134296
     atom   59 type  4   force =    -0.00037039   -0.00002285   -0.00136587
     atom   60 type  4   force =     0.00000722   -0.00003547   -0.00002603
     atom   61 type  4   force =    -0.00001888    0.00003289   -0.00002313
     atom   62 type  4   force =    -0.00009906   -0.00003083   -0.00063159
     atom   63 type  4   force =    -0.00008278   -0.00000343   -0.00065017

     Total force =     0.001584     Total SCF correction =     0.000379

     DFT-D3 dispersion Force =     0.017832
     SCF correction compared to forces is large: reduce conv_thr to get better values

     Computing stress (Cartesian axis) and pressure

     negative rho (up, down):  4.122E-03 0.000E+00
          total   stress  (Ry/bohr**3)                   (kbar)     P=      -10.85
  -0.00012191  -0.00000306   0.00000557          -17.93       -0.45        0.82
  -0.00000306  -0.00009265   0.00000137           -0.45      -13.63        0.20
   0.00000557   0.00000137  -0.00000662            0.82        0.20       -0.97

     kinetic stress (kbar)  11698.46      8.22    -30.90
                                8.22  11676.11    -10.54
                              -30.90    -10.54  11754.63

     local   stress (kbar)-834247.94   3823.11  -1794.39
                             3823.11-848528.17   -571.37
                            -1794.39   -571.37 841523.38

     nonloc. stress (kbar)  -1082.91     -3.68      2.62
                               -3.68  -1068.91      0.93
                                2.62      0.93  -1109.24

     hartree stress (kbar) 441943.72  -1736.35    787.04
                            -1736.35 448437.29    246.10
                              787.04    246.10-389248.91

     exc-cor stress (kbar)  -5698.10     -0.74      1.73
                               -0.74  -5695.59      0.59
                                1.73      0.59  -5704.18

     corecor stress (kbar)    -75.13      0.08     -0.61
                                0.08    -75.32     -0.20
                               -0.61     -0.20    -75.01

     ewald   stress (kbar) 387451.54  -2091.27   1035.56
                            -2091.27 395249.14    334.75
                             1035.56    334.75-457137.41

     hubbard stress (kbar)      0.00      0.00      0.00
                                0.00      0.00      0.00
                                0.00      0.00      0.00

     DFT-D   stress (kbar)     -7.57      0.18     -0.22
                                0.18     -8.17     -0.05
                               -0.22     -0.05     -4.22

     XDM     stress (kbar)      0.00      0.00      0.00
                                0.00      0.00      0.00
                                0.00      0.00      0.00

     dft-nl  stress (kbar)      0.00      0.00      0.00
                                0.00      0.00      0.00
                                0.00      0.00      0.00

     TS-vdW  stress (kbar)      0.00      0.00      0.00
                                0.00      0.00      0.00
                                0.00      0.00      0.00

     MDB     stress (kbar)      0.00      0.00      0.00
                                0.00      0.00      0.00
                                0.00      0.00      0.00

     3D-RISM stress (kbar)      0.00      0.00      0.00
                                0.00      0.00      0.00
                                0.00      0.00      0.00

     Energy error            =      6.0E-06 Ry
     Gradient error          =      4.8E-04 Ry/Bohr

     bfgs converged in  29 scf cycles and  28 bfgs steps
     (criteria: energy <  1.0E-05 Ry, force <  5.0E-04 Ry/Bohr)

     End of BFGS Geometry Optimization

     Final energy             =  -22331.0482106543 Ry

     File ./tmp/03_Zn101_ABN_topsite_tilted.bfgs deleted, as requested
Begin final coordinates

ATOMIC_POSITIONS (angstrom)
Zn              -1.0735560000        1.0841420000        1.1977640000    0   0   0
Zn              -2.3094850000        6.1646920000        1.1977640000    0   0   0
Zn              -4.2364788114        0.3104725482        4.3488446858
Zn              -5.4836851510        5.3905769959        4.3562785703
Zn              -8.1846236888       -0.6671802744        5.8224929645
Zn              -9.3911110754        4.4242352186        5.9744768509
Zn              -1.6915200000        3.6244170000        1.1977640000    0   0   0
Zn              -2.9274500000        8.7049670000        1.1977640000    0   0   0
Zn              -4.8664606632        2.8540095977        4.3463854188
Zn              -6.0922679763        7.9279222848        4.3563378928
Zn              -8.8156572179        1.8622598807        5.7957407721
Zn             -10.0529225025        6.9595177806        5.8039257260
Zn               4.4565960000        1.0841420000        1.1977640000    0   0   0
Zn               3.2206660000        6.1646920000        1.1977640000    0   0   0
Zn               0.4225173497        0.1006280270        3.4621868466
Zn              -0.8088805115        5.1920763518        3.4314597146
Zn              -2.0920740141       -0.5029237850        5.6804531437
Zn              -3.3409403644        4.5726245182        5.6823528916
Zn               3.8386310000        3.6244170000        1.1977640000    0   0   0
Zn               2.6027020000        8.7049670000        1.1977640000    0   0   0
Zn              -0.1861503152        2.6349333509        3.4331499069
Zn              -1.4312674574        7.7232094619        3.4624478218
Zn              -2.7224083202        2.0299769179        5.6790961060
Zn              -3.9461732525        7.1130357081        5.6837195056
Zn               1.6915200000        0.4114910000        0.8555450000    0   0   0
Zn               0.4555910000        5.4920410000        0.8555450000    0   0   0
Zn              -2.2372366504       -0.5443727645        2.8783316647
Zn              -3.4801556590        4.5366453623        2.8756626944
Zn              -6.0604678693       -1.4798906073        4.4227693195
Zn              -7.3201383869        3.5997031159        4.4891623238
Zn               1.0735560000        2.9517660000        0.8555450000    0   0   0
Zn              -0.1623740000        8.0323160000        0.8555450000    0   0   0
Zn              -2.8622851800        1.9967359725        2.8734792077
Zn              -4.0925850201        7.0779174965        2.8807531016
Zn              -6.6800529125        1.0574192803        4.4269844116
Zn              -7.9310309114        6.1301320137        4.4830026552
Zn               7.2216720000        0.4114910000        0.8555450000    0   0   0
Zn               5.9857420000        5.4920410000        0.8555450000    0   0   0
Zn               3.0083445208       -0.6160112176        2.9180835690
Zn               1.7892435250        4.4684900566        2.9314870517
Zn               0.3919270686       -1.2405863690        5.8025954878
Zn              -0.8527875332        3.8368812694        5.6949006025
Zn               6.6037070000        2.9517660000        0.8555450000    0   0   0
Zn               5.3677780000        8.0323160000        0.8555450000    0   0   0
Zn               2.4033702880        1.9304481630        2.9191765894
Zn               1.1702971949        7.0054863010        2.9211683303
Zn              -0.2269130856        1.3124995222        5.8140288086
Zn              -1.4590698811        6.3666529411        5.8093924644
C               -5.8776501967        5.5149528174       12.3278827184
C               -6.8633023853        5.2043388260       11.3451180345
C               -7.7341441860        6.2032871071       10.8681428758
C               -6.9810001224        3.8937922856       10.8425876310
C               -8.7025564485        5.8965541346        9.9227397006
C               -7.9496427529        3.5882417911        9.8971075860
C               -8.8302097920        4.5830839624        9.4369050365
N               -5.0706667473        5.7699264017       13.1319797307
N               -9.7839991186        4.2833756166        8.4588164663
H              -10.0785087314        3.3089711056        8.4082557003
H              -10.5870334559        4.9092253897        8.4180351077
H               -6.3094823134        3.1171520138       11.2082380925
H               -7.6479837386        7.2190422680       11.2541796864
H               -8.0366043483        2.5700015019        9.5118889863
H               -9.3768888118        6.6745575933        9.5589472090
End final coordinates

     Writing all to output data dir ./tmp/03_Zn101_ABN_topsite_tilted.save/ :
     XML data file, charge density, pseudopotentials, collected wavefunctions

     General routines

     Parallel routines

     PAW routines

   This run was terminated on:  16:39:22   7Apr2025

   JOB DONE.