     Program PWSCF v.7.3.1 starts on  5Apr2025 at  5: 9:46

     Waiting for input...
     Reading input from standard input
Warning: card &CELL ignored
Warning: card   CELL_DOFREE = 'ALL' ignored
Warning: card / ignored

     Current dimensions of program PWSCF are:
     Max number of different atomic species (ntypx) = 10
     Max number of k-points (npk) =  40000
     Max angular momentum in pseudopotentials (lmaxx) =  4
     Presently stress not available with electric field and gates

     R & G space division:  proc/nbgrp/npool/nimage =      31
     Subspace diagonalization in iterative solution of the eigenvalue problem:
     one sub-group per band group will be used

     Using Slab Decomposition

     bravais-lattice index     =            0
     lattice parameter (alat)  =      19.7617  a.u.
     unit-cell volume          =   15176.5939 (a.u.)^3
     number of atoms/cell      =           48
     number of atomic types    =            1
     number of electrons       =       959.00
     number of Kohn-Sham states=          576
     kinetic-energy cutoff     =      40.0000  Ry
     charge density cutoff     =     280.0000  Ry
     scf convergence threshold =      1.0E-06
     mixing beta               =       0.4000
     number of iterations used =            8  plain     mixing
     Exchange-correlation= SLA  PW   PBE  PBE
                           (   1   4   3   4   0   0   0)

     celldm(1)=  19.761696  celldm(2)=   0.000000  celldm(3)=   0.000000
     celldm(4)=   0.000000  celldm(5)=   0.000000  celldm(6)=   0.000000

     crystal axes: (cart. coord. in units of alat)
               a(1) = (   1.000000   0.000000   0.000000 )
               a(2) = (  -0.500000   0.866025   0.000000 )
               a(3) = (   0.000000   0.000000   2.270759 )

     reciprocal axes: (cart. coord. in units 2 pi/alat)
               b(1) = (  1.000000  0.577350 -0.000000 )
               b(2) = (  0.000000  1.154701  0.000000 )
               b(3) = (  0.000000 -0.000000  0.440381 )

     PseudoPot. # 1 for Zn read from file:
     /home/yongsang/Research/PSID_server_room/qe/[00]QE/qepseudo/SSSP_1.3.0_PBE_efficiency/Zn_pbe_v1.uspp.F.UPF
     MD5 check sum: df62231357ef9e81f77b2b3087fa5675
     Pseudo is Ultrasoft, Zval = 20.0
     Generated by new atomic code, or converted to UPF format
     Using radial grid of  943 points,  6 beta functions with:
                l(1) =   0
                l(2) =   0
                l(3) =   1
                l(4) =   1
                l(5) =   2
                l(6) =   2
     Q(r) pseudized with  8 coefficients,  rinner =    1.100   1.100   1.100
                                                       1.100   1.100

     atomic species   valence    mass     pseudopotential
     Zn               20.00    65.38000     Zn( 1.00)

     No symmetry found

                                    s                        frac. trans.

      isym =  1     identity

 cryst.   s( 1) = (     1          0          0      )
                  (     0          1          0      )
                  (     0          0          1      )

 cart.    s( 1) = (  1.0000000  0.0000000  0.0000000 )
                  (  0.0000000  1.0000000  0.0000000 )
                  (  0.0000000  0.0000000  1.0000000 )

   Cartesian axes

     site n.     atom                  positions (alat units)
         1        Zn     tau(   1) = (   0.0000000   0.1443375   0.1164998  )
         2        Zn     tau(   2) = (   0.5000000   0.1443375   0.1164998  )
         3        Zn     tau(   3) = (  -0.0000028   0.1443288   0.5893147  )
         4        Zn     tau(   4) = (   0.5000063   0.1444162   0.5894224  )
         5        Zn     tau(   5) = (  -0.1250000   0.3608439   0.1164998  )
         6        Zn     tau(   6) = (   0.3750000   0.3608439   0.1164998  )
         7        Zn     tau(   7) = (  -0.1250519   0.3608939   0.5893373  )
         8        Zn     tau(   8) = (   0.3750559   0.3609312   0.5893259  )
         9        Zn     tau(   9) = (  -0.2500000   0.5773502   0.1164998  )
        10        Zn     tau(  10) = (   0.2500000   0.5773502   0.1164998  )
        11        Zn     tau(  11) = (  -0.2500755   0.5773115   0.5893062  )
        12        Zn     tau(  12) = (   0.2500706   0.5773194   0.5893683  )
        13        Zn     tau(  13) = (  -0.3750000   0.7938567   0.1164998  )
        14        Zn     tau(  14) = (   0.1250000   0.7938567   0.1164998  )
        15        Zn     tau(  15) = (  -0.3750282   0.7937620   0.5892922  )
        16        Zn     tau(  16) = (   0.1250261   0.7938119   0.5894597  )
        17        Zn     tau(  17) = (   0.2500000   0.1443375   0.1164998  )
        18        Zn     tau(  18) = (   0.7500000   0.1443375   0.1164998  )
        19        Zn     tau(  19) = (   0.2499869   0.1443517   0.5893259  )
        20        Zn     tau(  20) = (   0.7500091   0.1443904   0.5894171  )
        21        Zn     tau(  21) = (   0.1250000   0.3608439   0.1164998  )
        22        Zn     tau(  22) = (   0.6250000   0.3608439   0.1164998  )
        23        Zn     tau(  23) = (   0.1250128   0.3608820   0.5893185  )
        24        Zn     tau(  24) = (   0.6249827   0.3609428   0.5893301  )
        25        Zn     tau(  25) = (   0.0000000   0.5773502   0.1164998  )
        26        Zn     tau(  26) = (   0.5000000   0.5773502   0.1164998  )
        27        Zn     tau(  27) = (  -0.0000277   0.5773140   0.5893837  )
        28        Zn     tau(  28) = (   0.5000305   0.5773158   0.5892824  )
        29        Zn     tau(  29) = (  -0.1250000   0.7938567   0.1164998  )
        30        Zn     tau(  30) = (   0.3750000   0.7938567   0.1164998  )
        31        Zn     tau(  31) = (  -0.1250544   0.7937943   0.5893864  )
        32        Zn     tau(  32) = (   0.3750529   0.7937806   0.5893662  )
        33        Zn     tau(  33) = (   0.1249604   0.0721258   0.3528222  )
        34        Zn     tau(  34) = (   0.6250402   0.0722582   0.3530318  )
        35        Zn     tau(  35) = (  -0.0000909   0.2887357   0.3529168  )
        36        Zn     tau(  36) = (   0.5000909   0.2888123   0.3530366  )
        37        Zn     tau(  37) = (  -0.1251119   0.5051366   0.3530212  )
        38        Zn     tau(  38) = (   0.3751115   0.5051777   0.3530364  )
        39        Zn     tau(  39) = (  -0.2500579   0.7215434   0.3529342  )
        40        Zn     tau(  40) = (   0.2500581   0.7216415   0.3530241  )
        41        Zn     tau(  41) = (   0.3750642   0.0722100   0.3529096  )
        42        Zn     tau(  42) = (   0.8749335   0.0721725   0.3529557  )
        43        Zn     tau(  43) = (   0.2500889   0.2887828   0.3529046  )
        44        Zn     tau(  44) = (   0.7499090   0.2887654   0.3530512  )
        45        Zn     tau(  45) = (   0.1250386   0.5051978   0.3529893  )
        46        Zn     tau(  46) = (   0.6249614   0.5051196   0.3530706  )
        47        Zn     tau(  47) = (   0.0000156   0.7216406   0.3529879  )
        48        Zn     tau(  48) = (   0.4999831   0.7215417   0.3529641  )

     DFT-D3 Dispersion Correction (3-body terms):
       Reference C6 values for interpolation:

         atom   Coordination number   C6
         Zn         0.000           681.04
         Zn         1.942           306.91

       Values used:

         atom   Coordination number  R0_AB[au]  C6      C8
         Zn         6.782            3.053    306.91  23930.67
         Zn         6.779            3.053    306.91  23930.67
         Zn         6.779            3.053    306.91  23930.67
         Zn         6.779            3.053    306.91  23930.67
         Zn         6.780            3.053    306.91  23930.67
         Zn         6.780            3.053    306.91  23930.67
         Zn         6.786            3.053    306.91  23930.67
         Zn         6.788            3.053    306.91  23930.67
         Zn         6.780            3.053    306.91  23930.67
         Zn         6.778            3.053    306.91  23930.67
         Zn         6.791            3.053    306.91  23930.67
         Zn         6.785            3.053    306.91  23930.67
         Zn         6.782            3.053    306.91  23930.67
         Zn         6.777            3.053    306.91  23930.67
         Zn         6.783            3.053    306.91  23930.67
         Zn         6.777            3.053    306.91  23930.67
         Zn         6.782            3.053    306.91  23930.67
         Zn         6.779            3.053    306.91  23930.67
         Zn         6.777            3.053    306.91  23930.67
         Zn         6.781            3.053    306.91  23930.67
         Zn         6.780            3.053    306.91  23930.67
         Zn         6.779            3.053    306.91  23930.67
         Zn         6.782            3.053    306.91  23930.67
         Zn         6.793            3.053    306.91  23930.67
         Zn         6.778            3.053    306.91  23930.67
         Zn         6.780            3.053    306.91  23930.67
         Zn         6.782            3.053    306.91  23930.67
         Zn         6.795            3.053    306.91  23930.67
         Zn         6.779            3.053    306.91  23930.67
         Zn         6.779            3.053    306.91  23930.67
         Zn         6.777            3.053    306.91  23930.67
         Zn         6.783            3.053    306.91  23930.67
         Zn         8.379            3.053    306.91  23930.67
         Zn         8.379            3.053    306.91  23930.67
         Zn         8.381            3.053    306.91  23930.67
         Zn         8.387            3.053    306.91  23930.67
         Zn         8.386            3.053    306.91  23930.67
         Zn         8.390            3.053    306.91  23930.67
         Zn         8.383            3.053    306.91  23930.67
         Zn         8.381            3.053    306.91  23930.67
         Zn         8.377            3.053    306.91  23930.67
         Zn         8.380            3.053    306.91  23930.67
         Zn         8.381            3.053    306.91  23930.67
         Zn         8.387            3.053    306.91  23930.67
         Zn         8.382            3.053    306.91  23930.67
         Zn         8.394            3.053    306.91  23930.67
         Zn         8.378            3.053    306.91  23930.67
         Zn         8.387            3.053    306.91  23930.67

         Molecular C6 ( Ry / a.u.^6 ) =    707110.50

   Crystallographic axes

     site n.     atom                  positions (cryst. coord.)
         1        Zn     tau(   1) = (  0.0833333  0.1666666  0.0513044  )
         2        Zn     tau(   2) = (  0.5833333  0.1666666  0.0513044  )
         3        Zn     tau(   3) = (  0.0833255  0.1666566  0.2595232  )
         4        Zn     tau(   4) = (  0.5833850  0.1667575  0.2595707  )
         5        Zn     tau(   5) = (  0.0833333  0.4166666  0.0513044  )
         6        Zn     tau(   6) = (  0.5833333  0.4166666  0.0513044  )
         7        Zn     tau(   7) = (  0.0833103  0.4167244  0.2595332  )
         8        Zn     tau(   8) = (  0.5834397  0.4167674  0.2595282  )
[...]
     atom   40 type  1   force =     0.74625899    0.28004410   -0.03372407
     atom   41 type  1   force =     0.10953088    0.09456942    0.02405329
     atom   42 type  1   force =    -2.00917810   -1.12989550    0.00940304
     atom   43 type  1   force =     0.17384254    0.18715590    0.06752673
     atom   44 type  1   force =    -2.07190701   -0.97967568   -0.02674949
     atom   45 type  1   force =     0.11661315    0.03390323    0.00802812
     atom   46 type  1   force =    -2.01753002   -1.19819846    0.02528174
     atom   47 type  1   force =     0.05417117   -0.05389563   -0.02765283
     atom   48 type  1   force =    -1.95679291   -1.34205774    0.07175070
     The core correction contribution to forces
     atom    1 type  1   force =     0.00000000    0.00000000    0.00000000
     atom    2 type  1   force =     0.00000000    0.00000000    0.00000000
     atom    3 type  1   force =     0.00000000    0.00000000    0.00000000
     atom    4 type  1   force =     0.00000000    0.00000000    0.00000000
     atom    5 type  1   force =     0.00000000    0.00000000    0.00000000
     atom    6 type  1   force =     0.00000000    0.00000000    0.00000000
     atom    7 type  1   force =     0.00000000    0.00000000    0.00000000
     atom    8 type  1   force =     0.00000000    0.00000000    0.00000000
     atom    9 type  1   force =     0.00000000    0.00000000    0.00000000
     atom   10 type  1   force =     0.00000000    0.00000000    0.00000000
     atom   11 type  1   force =     0.00000000    0.00000000    0.00000000
     atom   12 type  1   force =     0.00000000    0.00000000    0.00000000
     atom   13 type  1   force =     0.00000000    0.00000000    0.00000000
     atom   14 type  1   force =     0.00000000    0.00000000    0.00000000
     atom   15 type  1   force =     0.00000000    0.00000000    0.00000000
     atom   16 type  1   force =     0.00000000    0.00000000    0.00000000
     atom   17 type  1   force =     0.00000000    0.00000000    0.00000000
     atom   18 type  1   force =     0.00000000    0.00000000    0.00000000
     atom   19 type  1   force =     0.00000000    0.00000000    0.00000000
     atom   20 type  1   force =     0.00000000    0.00000000    0.00000000
     atom   21 type  1   force =     0.00000000    0.00000000    0.00000000
     atom   22 type  1   force =     0.00000000    0.00000000    0.00000000
     atom   23 type  1   force =     0.00000000    0.00000000    0.00000000
     atom   24 type  1   force =     0.00000000    0.00000000    0.00000000
     atom   25 type  1   force =     0.00000000    0.00000000    0.00000000
     atom   26 type  1   force =     0.00000000    0.00000000    0.00000000
     atom   27 type  1   force =     0.00000000    0.00000000    0.00000000
     atom   28 type  1   force =     0.00000000    0.00000000    0.00000000
     atom   29 type  1   force =     0.00000000    0.00000000    0.00000000
     atom   30 type  1   force =     0.00000000    0.00000000    0.00000000
     atom   31 type  1   force =     0.00000000    0.00000000    0.00000000
     atom   32 type  1   force =     0.00000000    0.00000000    0.00000000
     atom   33 type  1   force =     0.00000000    0.00000000    0.00000000
     atom   34 type  1   force =     0.00000000    0.00000000    0.00000000
     atom   35 type  1   force =     0.00000000    0.00000000    0.00000000
     atom   36 type  1   force =     0.00000000    0.00000000    0.00000000
     atom   37 type  1   force =     0.00000000    0.00000000    0.00000000
     atom   38 type  1   force =     0.00000000    0.00000000    0.00000000
     atom   39 type  1   force =     0.00000000    0.00000000    0.00000000
     atom   40 type  1   force =     0.00000000    0.00000000    0.00000000
     atom   41 type  1   force =     0.00000000    0.00000000    0.00000000
     atom   42 type  1   force =     0.00000000    0.00000000    0.00000000
     atom   43 type  1   force =     0.00000000    0.00000000    0.00000000
     atom   44 type  1   force =     0.00000000    0.00000000    0.00000000
     atom   45 type  1   force =     0.00000000    0.00000000    0.00000000
     atom   46 type  1   force =     0.00000000    0.00000000    0.00000000
     atom   47 type  1   force =     0.00000000    0.00000000    0.00000000
     atom   48 type  1   force =     0.00000000    0.00000000    0.00000000
     The Hubbard contrib.    to forces
     atom    1 type  1   force =     0.00000000    0.00000000    0.00000000
     atom    2 type  1   force =     0.00000000    0.00000000    0.00000000
     atom    3 type  1   force =     0.00000000    0.00000000    0.00000000
     atom    4 type  1   force =     0.00000000    0.00000000    0.00000000
     atom    5 type  1   force =     0.00000000    0.00000000    0.00000000
     atom    6 type  1   force =     0.00000000    0.00000000    0.00000000
     atom    7 type  1   force =     0.00000000    0.00000000    0.00000000
     atom    8 type  1   force =     0.00000000    0.00000000    0.00000000
     atom    9 type  1   force =     0.00000000    0.00000000    0.00000000
     atom   10 type  1   force =     0.00000000    0.00000000    0.00000000
     atom   11 type  1   force =     0.00000000    0.00000000    0.00000000
     atom   12 type  1   force =     0.00000000    0.00000000    0.00000000
     atom   13 type  1   force =     0.00000000    0.00000000    0.00000000
     atom   14 type  1   force =     0.00000000    0.00000000    0.00000000
     atom   15 type  1   force =     0.00000000    0.00000000    0.00000000
     atom   16 type  1   force =     0.00000000    0.00000000    0.00000000
     atom   17 type  1   force =     0.00000000    0.00000000    0.00000000
     atom   18 type  1   force =     0.00000000    0.00000000    0.00000000
     atom   19 type  1   force =     0.00000000    0.00000000    0.00000000
     atom   20 type  1   force =     0.00000000    0.00000000    0.00000000
     atom   21 type  1   force =     0.00000000    0.00000000    0.00000000
     atom   22 type  1   force =     0.00000000    0.00000000    0.00000000
     atom   23 type  1   force =     0.00000000    0.00000000    0.00000000
     atom   24 type  1   force =     0.00000000    0.00000000    0.00000000
     atom   25 type  1   force =     0.00000000    0.00000000    0.00000000
     atom   26 type  1   force =     0.00000000    0.00000000    0.00000000
     atom   27 type  1   force =     0.00000000    0.00000000    0.00000000
     atom   28 type  1   force =     0.00000000    0.00000000    0.00000000
     atom   29 type  1   force =     0.00000000    0.00000000    0.00000000
     atom   30 type  1   force =     0.00000000    0.00000000    0.00000000
     atom   31 type  1   force =     0.00000000    0.00000000    0.00000000
     atom   32 type  1   force =     0.00000000    0.00000000    0.00000000
     atom   33 type  1   force =     0.00000000    0.00000000    0.00000000
     atom   34 type  1   force =     0.00000000    0.00000000    0.00000000
     atom   35 type  1   force =     0.00000000    0.00000000    0.00000000
     atom   36 type  1   force =     0.00000000    0.00000000    0.00000000
     atom   37 type  1   force =     0.00000000    0.00000000    0.00000000
     atom   38 type  1   force =     0.00000000    0.00000000    0.00000000
     atom   39 type  1   force =     0.00000000    0.00000000    0.00000000
     atom   40 type  1   force =     0.00000000    0.00000000    0.00000000
     atom   41 type  1   force =     0.00000000    0.00000000    0.00000000
     atom   42 type  1   force =     0.00000000    0.00000000    0.00000000
     atom   43 type  1   force =     0.00000000    0.00000000    0.00000000
     atom   44 type  1   force =     0.00000000    0.00000000    0.00000000
     atom   45 type  1   force =     0.00000000    0.00000000    0.00000000
     atom   46 type  1   force =     0.00000000    0.00000000    0.00000000
     atom   47 type  1   force =     0.00000000    0.00000000    0.00000000
     atom   48 type  1   force =     0.00000000    0.00000000    0.00000000
     The SCF correction term to forces
     atom    1 type  1   force =    -0.00000000   -0.00000000    0.00000000
     atom    2 type  1   force =     0.00000000    0.00000000    0.00000000
     atom    3 type  1   force =     0.00004879   -0.00037981   -0.00058253
     atom    4 type  1   force =     0.00016768    0.00047472   -0.00085684
     atom    5 type  1   force =    -0.00000000   -0.00000000    0.00000000
     atom    6 type  1   force =     0.00000000    0.00000000    0.00000000
     atom    7 type  1   force =    -0.00013920   -0.00043701   -0.00032074
     atom    8 type  1   force =     0.00038698    0.00020374   -0.00099383
     atom    9 type  1   force =    -0.00000000   -0.00000000    0.00000000
     atom   10 type  1   force =     0.00000000    0.00000000    0.00000000
     atom   11 type  1   force =    -0.00061439    0.00005564   -0.00034236
     atom   12 type  1   force =     0.00083727    0.00010681   -0.00087566
     atom   13 type  1   force =    -0.00000000   -0.00000000    0.00000000
     atom   14 type  1   force =     0.00000000    0.00000000    0.00000000
     atom   15 type  1   force =    -0.00041994    0.00011392   -0.00060162
     atom   16 type  1   force =     0.00061970    0.00037786   -0.00075360
     atom   17 type  1   force =     0.00000000    0.00000000    0.00000000
     atom   18 type  1   force =    -0.00000000   -0.00000000    0.00000000
     atom   19 type  1   force =    -0.00094874   -0.00039924   -0.00049911
     atom   20 type  1   force =     0.00073589    0.00025513   -0.00084253
     atom   21 type  1   force =     0.00000000   -0.00000000    0.00000000
     atom   22 type  1   force =    -0.00000000   -0.00000000    0.00000000
     atom   23 type  1   force =    -0.00047140   -0.00085612   -0.00036126
     atom   24 type  1   force =     0.00024341    0.00034178   -0.00083521
     atom   25 type  1   force =     0.00000000    0.00000000   -0.00000000
     atom   26 type  1   force =    -0.00000000   -0.00000000    0.00000000
     atom   27 type  1   force =    -0.00069709   -0.00056054   -0.00011836
     atom   28 type  1   force =     0.00044363    0.00042371   -0.00098579
     atom   29 type  1   force =    -0.00000000    0.00000000    0.00000000
     atom   30 type  1   force =    -0.00000000   -0.00000000    0.00000000
     atom   31 type  1   force =    -0.00117071   -0.00008601   -0.00026784
     atom   32 type  1   force =     0.00094566    0.00034139   -0.00100062
     atom   33 type  1   force =    -0.00074923   -0.00040922    0.00073532
     atom   34 type  1   force =     0.00041481    0.00036089   -0.00046159
     atom   35 type  1   force =    -0.00030837   -0.00094765    0.00074574
     atom   36 type  1   force =    -0.00000811    0.00034356   -0.00045433
     atom   37 type  1   force =    -0.00081161   -0.00049536    0.00072479
     atom   38 type  1   force =     0.00049842    0.00015578   -0.00048293
     atom   39 type  1   force =    -0.00126512    0.00004902    0.00074708
     atom   40 type  1   force =     0.00092573    0.00019618   -0.00050031
     atom   41 type  1   force =    -0.00032746    0.00041749    0.00013450
     atom   42 type  1   force =     0.00006095   -0.00042370    0.00014469
     atom   43 type  1   force =     0.00017110   -0.00014858    0.00011646
     atom   44 type  1   force =    -0.00050100   -0.00044605    0.00017113
     atom   45 type  1   force =     0.00063490   -0.00026115    0.00011060
     atom   46 type  1   force =    -0.00093357   -0.00007841    0.00015448
     atom   47 type  1   force =     0.00012603    0.00033175    0.00012180
     atom   48 type  1   force =    -0.00036776   -0.00005938    0.00013301

     DFT-D3 dispersion contribution to forces:
     atom    1 type  1   force =     0.00000071   -0.00000040    0.00268593
     atom    2 type  1   force =    -0.00000067   -0.00000109    0.00268009
     atom    3 type  1   force =    -0.00000065   -0.00000074   -0.00268389
     atom    4 type  1   force =     0.00000095    0.00000683   -0.00268239
     atom    5 type  1   force =     0.00000107    0.00000042    0.00268313
     atom    6 type  1   force =    -0.00000103    0.00000020    0.00268247
     atom    7 type  1   force =    -0.00000492    0.00000459   -0.00268704
     atom    8 type  1   force =     0.00000532    0.00000761   -0.00268673
     atom    9 type  1   force =     0.00000054    0.00000113    0.00268254
     atom   10 type  1   force =    -0.00000057    0.00000042    0.00267875
     atom   11 type  1   force =    -0.00000656   -0.00000351   -0.00268815
     atom   12 type  1   force =     0.00000616   -0.00000238   -0.00268508
     atom   13 type  1   force =     0.00000011    0.00000029    0.00268563
     atom   14 type  1   force =    -0.00000016   -0.00000097    0.00267668
     atom   15 type  1   force =    -0.00000231   -0.00000864   -0.00268429
     atom   16 type  1   force =     0.00000224   -0.00000368   -0.00268083
     atom   17 type  1   force =    -0.00000007   -0.00000024    0.00268555
     atom   18 type  1   force =     0.00000004   -0.00000131    0.00268044
     atom   19 type  1   force =    -0.00000057    0.00000123   -0.00268192
     atom   20 type  1   force =     0.00000031    0.00000468   -0.00268413
     atom   21 type  1   force =     0.00000041    0.00000061    0.00268355
     atom   22 type  1   force =    -0.00000041    0.00000002    0.00268189
     atom   23 type  1   force =     0.00000114    0.00000350   -0.00268485
     atom   24 type  1   force =    -0.00000149    0.00000860   -0.00268967
     atom   25 type  1   force =     0.00000087    0.00000077    0.00267924
     atom   26 type  1   force =    -0.00000085    0.00000088    0.00268223
     atom   27 type  1   force =    -0.00000252   -0.00000287   -0.00268375
     atom   28 type  1   force =     0.00000289   -0.00000318   -0.00268974
     atom   29 type  1   force =     0.00000050   -0.00000012    0.00268114
     atom   30 type  1   force =    -0.00000046   -0.00000069    0.00268091
     atom   31 type  1   force =    -0.00000445   -0.00000544   -0.00268124
     atom   32 type  1   force =     0.00000444   -0.00000671   -0.00268420
     atom   33 type  1   force =    -0.00000383   -0.00000423   -0.00000304
     atom   34 type  1   force =     0.00000394    0.00000896    0.00000234
     atom   35 type  1   force =    -0.00000882    0.00000568    0.00000036
     atom   36 type  1   force =     0.00000887    0.00001334    0.00000525
     atom   37 type  1   force =    -0.00001124   -0.00000455    0.00000517
     atom   38 type  1   force =     0.00001119   -0.00000048    0.00000709
     atom   39 type  1   force =    -0.00000591   -0.00001412    0.00000230
     atom   40 type  1   force =     0.00000606   -0.00000443    0.00000395
     atom   41 type  1   force =     0.00000583    0.00000415   -0.00000121
     atom   42 type  1   force =    -0.00000597    0.00000051    0.00000112
     atom   43 type  1   force =     0.00000864    0.00001027    0.00000016
     atom   44 type  1   force =    -0.00000876    0.00000893    0.00000539
     atom   45 type  1   force =     0.00000372    0.00000108    0.00000340
     atom   46 type  1   force =    -0.00000360   -0.00000602    0.00000938
     atom   47 type  1   force =     0.00000105   -0.00000459    0.00000177
     atom   48 type  1   force =    -0.00000117   -0.00001429    0.00000433

     Total force =    29.607723     Total SCF correction =     0.005332

     DFT-D3 dispersion Force =     0.015180

     Writing all to output data dir ./tmp/Zn002_3layer_relax.save/ :
     XML data file, charge density, pseudopotentials, collected wavefunctions

     General routines

     Parallel routines

   This run was terminated on:   6:12: 9   5Apr2025

   JOB DONE.
Note: The following floating-point exceptions are signalling: IEEE_DENORMAL
Note: The following floating-point exceptions are signalling: IEEE_DENORMAL
Note: The following floating-point exceptions are signalling: IEEE_DENORMAL
Note: The following floating-point exceptions are signalling: IEEE_DENORMAL
Note: The following floating-point exceptions are signalling: IEEE_DENORMAL
Note: The following floating-point exceptions are signalling: IEEE_DENORMAL
Note: The following floating-point exceptions are signalling: IEEE_DENORMAL
Note: The following floating-point exceptions are signalling: IEEE_DENORMAL
Note: The following floating-point exceptions are signalling: IEEE_DENORMAL
Note: The following floating-point exceptions are signalling: IEEE_DENORMAL
Note: The following floating-point exceptions are signalling: IEEE_DENORMAL
Note: The following floating-point exceptions are signalling: IEEE_DENORMAL