     Program PWSCF v.7.3.1 starts on 17Mar2025 at 14:35: 5

     Waiting for input...
     Reading input from standard input
Warning: card &CELL ignored
Warning: card   CELL_DOFREE = 'ALL' ignored
Warning: card / ignored

     Current dimensions of program PWSCF are:
     Max number of different atomic species (ntypx) = 10
     Max number of k-points (npk) =  40000
     Max angular momentum in pseudopotentials (lmaxx) =  4
     Found identity + (  0.5000  0.0000  0.0000) symmetry
     This is a supercell, fractional translations are disabled

     R & G space division:  proc/nbgrp/npool/nimage =      32
     Subspace diagonalization in iterative solution of the eigenvalue problem:
     one sub-group per band group will be used

     Using Slab Decomposition

     bravais-lattice index     =            0
     lattice parameter (alat)  =      19.7617  a.u.
     unit-cell volume          =   15176.5939 (a.u.)^3
     number of atoms/cell      =           64
     number of atomic types    =            1
     number of electrons       =      1280.00
     number of Kohn-Sham states=          768
     kinetic-energy cutoff     =      30.0000  Ry
     charge density cutoff     =     120.0000  Ry
     scf convergence threshold =      7.3E-07
     mixing beta               =       0.7000
     number of iterations used =            8  plain     mixing
     energy convergence thresh.=      1.0E-05
     force convergence thresh. =      5.0E-04
     Exchange-correlation= SLA  PW   PBE  PBE
                           (   1   4   3   4   0   0   0)
     nstep                     =          100

     celldm(1)=  19.761696  celldm(2)=   0.000000  celldm(3)=   0.000000
     celldm(4)=   0.000000  celldm(5)=   0.000000  celldm(6)=   0.000000

     crystal axes: (cart. coord. in units of alat)
               a(1) = (   1.000000   0.000000   0.000000 )
               a(2) = (  -0.500000   0.866025   0.000000 )
               a(3) = (   0.000000   0.000000   2.270759 )

     reciprocal axes: (cart. coord. in units 2 pi/alat)
               b(1) = (  1.000000  0.577350 -0.000000 )
               b(2) = (  0.000000  1.154701  0.000000 )
               b(3) = (  0.000000 -0.000000  0.440381 )

     PseudoPot. # 1 for Zn read from file:
     /home/ys/qepseudo/SSSP_1.3.0_PBE_efficiency/Zn_pbe_v1.uspp.F.UPF
     MD5 check sum: df62231357ef9e81f77b2b3087fa5675
     Pseudo is Ultrasoft, Zval = 20.0
     Generated by new atomic code, or converted to UPF format
     Using radial grid of  943 points,  6 beta functions with:
                l(1) =   0
                l(2) =   0
                l(3) =   1
                l(4) =   1
                l(5) =   2
                l(6) =   2
     Q(r) pseudized with  8 coefficients,  rinner =    1.100   1.100   1.100
                                                       1.100   1.100

     atomic species   valence    mass     pseudopotential
     Zn               20.00    65.38000     Zn( 1.00)

     No symmetry found

                                    s                        frac. trans.

      isym =  1     identity

 cryst.   s( 1) = (     1          0          0      )
                  (     0          1          0      )
                  (     0          0          1      )

 cart.    s( 1) = (  1.0000000  0.0000000  0.0000000 )
                  (  0.0000000  1.0000000  0.0000000 )
                  (  0.0000000  0.0000000  1.0000000 )

   Cartesian axes

     site n.     atom                  positions (alat units)
         1        Zn     tau(   1) = (  -0.0000000   0.1443376   0.1164999  )
         2        Zn     tau(   2) = (   0.5000000   0.1443376   0.1164999  )
         3        Zn     tau(   3) = (  -0.0000001   0.1447994   0.5968783  )
         4        Zn     tau(   4) = (   0.4999999   0.1447994   0.5968783  )
         5        Zn     tau(   5) = (  -0.1250000   0.3608439   0.1164999  )
         6        Zn     tau(   6) = (   0.3750000   0.3608439   0.1164999  )
         7        Zn     tau(   7) = (  -0.1250002   0.3613666   0.5969173  )
         8        Zn     tau(   8) = (   0.3749998   0.3613666   0.5969173  )
         9        Zn     tau(   9) = (  -0.2500000   0.5773503   0.1164999  )
        10        Zn     tau(  10) = (   0.2500000   0.5773503   0.1164999  )
        11        Zn     tau(  11) = (  -0.2500000   0.5778387   0.5969571  )
        12        Zn     tau(  12) = (   0.2500000   0.5778387   0.5969571  )
        13        Zn     tau(  13) = (  -0.3750000   0.7938566   0.1164999  )
        14        Zn     tau(  14) = (   0.1250000   0.7938566   0.1164999  )
        15        Zn     tau(  15) = (  -0.3749999   0.7942897   0.5969345  )
        16        Zn     tau(  16) = (   0.1250001   0.7942897   0.5969345  )
        17        Zn     tau(  17) = (   0.2500000   0.1443376   0.1164999  )
        18        Zn     tau(  18) = (   0.7500000   0.1443376   0.1164999  )
        19        Zn     tau(  19) = (   0.2500003   0.1447995   0.5968785  )
        20        Zn     tau(  20) = (   0.7500003   0.1447995   0.5968785  )
        21        Zn     tau(  21) = (   0.1250000   0.3608439   0.1164999  )
        22        Zn     tau(  22) = (   0.6250000   0.3608439   0.1164999  )
        23        Zn     tau(  23) = (   0.1250002   0.3613668   0.5969171  )
        24        Zn     tau(  24) = (   0.6250002   0.3613668   0.5969171  )
        25        Zn     tau(  25) = (  -0.0000000   0.5773503   0.1164999  )
        26        Zn     tau(  26) = (   0.5000000   0.5773503   0.1164999  )
        27        Zn     tau(  27) = (   0.0000001   0.5778388   0.5969569  )
        28        Zn     tau(  28) = (   0.5000001   0.5778388   0.5969569  )
        29        Zn     tau(  29) = (  -0.1250000   0.7938566   0.1164999  )
        30        Zn     tau(  30) = (   0.3750000   0.7938566   0.1164999  )
        31        Zn     tau(  31) = (  -0.1250001   0.7942898   0.5969345  )
        32        Zn     tau(  32) = (   0.3749999   0.7942898   0.5969345  )
        33        Zn     tau(  33) = (   0.1250000   0.0721688   0.3494996  )
        34        Zn     tau(  34) = (   0.6250000   0.0721688   0.3494996  )
        35        Zn     tau(  35) = (   0.1249999   0.0711665   0.8442470  )
        36        Zn     tau(  36) = (   0.6249999   0.0711665   0.8442470  )
        37        Zn     tau(  37) = (   0.0000000   0.2886751   0.3494996  )
        38        Zn     tau(  38) = (   0.5000000   0.2886751   0.3494996  )
        39        Zn     tau(  39) = (   0.0000001   0.2877304   0.8442679  )
        40        Zn     tau(  40) = (   0.5000001   0.2877304   0.8442679  )
        41        Zn     tau(  41) = (  -0.1250000   0.5051815   0.3494996  )
        42        Zn     tau(  42) = (   0.3750000   0.5051815   0.3494996  )
        43        Zn     tau(  43) = (  -0.1249999   0.5042379   0.8439934  )
        44        Zn     tau(  44) = (   0.3750001   0.5042379   0.8439934  )
        45        Zn     tau(  45) = (  -0.2500000   0.7216878   0.3494996  )
        46        Zn     tau(  46) = (   0.2500000   0.7216878   0.3494996  )
        47        Zn     tau(  47) = (  -0.2500000   0.7206870   0.8439737  )
        48        Zn     tau(  48) = (   0.2500000   0.7206870   0.8439737  )
        49        Zn     tau(  49) = (   0.3750000   0.0721688   0.3494996  )
        50        Zn     tau(  50) = (   0.8750000   0.0721688   0.3494996  )
        51        Zn     tau(  51) = (   0.3750001   0.0711664   0.8442470  )
        52        Zn     tau(  52) = (   0.8750001   0.0711664   0.8442470  )
        53        Zn     tau(  53) = (   0.2500000   0.2886751   0.3494996  )
        54        Zn     tau(  54) = (   0.7500000   0.2886751   0.3494996  )
        55        Zn     tau(  55) = (   0.2500000   0.2877304   0.8442683  )
        56        Zn     tau(  56) = (   0.7500000   0.2877304   0.8442683  )
        57        Zn     tau(  57) = (   0.1250000   0.5051815   0.3494996  )
        58        Zn     tau(  58) = (   0.6250000   0.5051815   0.3494996  )
        59        Zn     tau(  59) = (   0.1249999   0.5042378   0.8439933  )
        60        Zn     tau(  60) = (   0.6249999   0.5042378   0.8439933  )
        61        Zn     tau(  61) = (   0.0000000   0.7216878   0.3494996  )
        62        Zn     tau(  62) = (   0.5000000   0.7216878   0.3494996  )
        63        Zn     tau(  63) = (   0.0000001   0.7206869   0.8439736  )
        64        Zn     tau(  64) = (   0.5000001   0.7206869   0.8439736  )

   Crystallographic axes

     site n.     atom                  positions (cryst. coord.)
         1        Zn     tau(   1) = (  0.0833333  0.1666667  0.0513044  )
         2        Zn     tau(   2) = (  0.5833333  0.1666667  0.0513044  )
         3        Zn     tau(   3) = (  0.0835998  0.1671999  0.2628541  )
         4        Zn     tau(   4) = (  0.5835998  0.1671999  0.2628541  )
         5        Zn     tau(   5) = (  0.0833333  0.4166667  0.0513044  )
         6        Zn     tau(   6) = (  0.5833333  0.4166667  0.0513044  )
         7        Zn     tau(   7) = (  0.0836350  0.4172702  0.2628713  )
         8        Zn     tau(   8) = (  0.5836350  0.4172702  0.2628713  )
         9        Zn     tau(   9) = (  0.0833333  0.6666667  0.0513044  )
        10        Zn     tau(  10) = (  0.5833333  0.6666667  0.0513044  )
        11        Zn     tau(  11) = (  0.0836154  0.6672307  0.2628888  )
        12        Zn     tau(  12) = (  0.5836154  0.6672307  0.2628888  )
        13        Zn     tau(  13) = (  0.0833333  0.9166667  0.0513044  )
        14        Zn     tau(  14) = (  0.5833333  0.9166667  0.0513044  )
        15        Zn     tau(  15) = (  0.0835834  0.9171667  0.2628789  )
        16        Zn     tau(  16) = (  0.5835834  0.9171667  0.2628789  )
        17        Zn     tau(  17) = (  0.3333333  0.1666667  0.0513044  )
        18        Zn     tau(  18) = (  0.8333333  0.1666667  0.0513044  )
        19        Zn     tau(  19) = (  0.3336003  0.1672000  0.2628542  )
        20        Zn     tau(  20) = (  0.8336003  0.1672000  0.2628542  )
        21        Zn     tau(  21) = (  0.3333333  0.4166667  0.0513044  )
        22        Zn     tau(  22) = (  0.8333333  0.4166667  0.0513044  )
        23        Zn     tau(  23) = (  0.3336354  0.4172704  0.2628712  )
        24        Zn     tau(  24) = (  0.8336354  0.4172704  0.2628712  )
        25        Zn     tau(  25) = (  0.3333333  0.6666667  0.0513044  )
        26        Zn     tau(  26) = (  0.8333333  0.6666667  0.0513044  )
        27        Zn     tau(  27) = (  0.3336155  0.6672308  0.2628887  )
        28        Zn     tau(  28) = (  0.8336155  0.6672308  0.2628887  )
        29        Zn     tau(  29) = (  0.3333333  0.9166667  0.0513044  )
        30        Zn     tau(  30) = (  0.8333333  0.9166667  0.0513044  )
        31        Zn     tau(  31) = (  0.3335833  0.9171668  0.2628788  )
        32        Zn     tau(  32) = (  0.8335833  0.9171668  0.2628788  )
        33        Zn     tau(  33) = (  0.1666667  0.0833333  0.1539131  )
        34        Zn     tau(  34) = (  0.6666667  0.0833333  0.1539131  )
[...]
     atom   34 type  1   force =     0.00000000    0.00000000    0.00000000
     atom   35 type  1   force =     0.00000000    0.00000000    0.00000000
     atom   36 type  1   force =     0.00000000    0.00000000    0.00000000
     atom   37 type  1   force =     0.00000000    0.00000000    0.00000000
     atom   38 type  1   force =     0.00000000    0.00000000    0.00000000
     atom   39 type  1   force =     0.00000000    0.00000000    0.00000000
     atom   40 type  1   force =     0.00000000    0.00000000    0.00000000
     atom   41 type  1   force =     0.00000000    0.00000000    0.00000000
     atom   42 type  1   force =     0.00000000    0.00000000    0.00000000
     atom   43 type  1   force =     0.00000000    0.00000000    0.00000000
     atom   44 type  1   force =     0.00000000    0.00000000    0.00000000
     atom   45 type  1   force =     0.00000000    0.00000000    0.00000000
     atom   46 type  1   force =     0.00000000    0.00000000    0.00000000
     atom   47 type  1   force =     0.00000000    0.00000000    0.00000000
     atom   48 type  1   force =     0.00000000    0.00000000    0.00000000
     atom   49 type  1   force =     0.00000000    0.00000000    0.00000000
     atom   50 type  1   force =     0.00000000    0.00000000    0.00000000
     atom   51 type  1   force =     0.00000000    0.00000000    0.00000000
     atom   52 type  1   force =     0.00000000    0.00000000    0.00000000
     atom   53 type  1   force =     0.00000000    0.00000000    0.00000000
     atom   54 type  1   force =     0.00000000    0.00000000    0.00000000
     atom   55 type  1   force =     0.00000000    0.00000000    0.00000000
     atom   56 type  1   force =     0.00000000    0.00000000    0.00000000
     atom   57 type  1   force =     0.00000000    0.00000000    0.00000000
     atom   58 type  1   force =     0.00000000    0.00000000    0.00000000
     atom   59 type  1   force =     0.00000000    0.00000000    0.00000000
     atom   60 type  1   force =     0.00000000    0.00000000    0.00000000
     atom   61 type  1   force =     0.00000000    0.00000000    0.00000000
     atom   62 type  1   force =     0.00000000    0.00000000    0.00000000
     atom   63 type  1   force =     0.00000000    0.00000000    0.00000000
     atom   64 type  1   force =     0.00000000    0.00000000    0.00000000
     The SCF correction term to forces
     atom    1 type  1   force =     0.00000000    0.00000000   -0.00000000
     atom    2 type  1   force =    -0.00000000    0.00000000   -0.00000000
     atom    3 type  1   force =     0.00001981   -0.00003141   -0.00002400
     atom    4 type  1   force =    -0.00001838   -0.00002948   -0.00000521
     atom    5 type  1   force =     0.00000000   -0.00000000   -0.00000000
     atom    6 type  1   force =    -0.00000000   -0.00000000   -0.00000000
     atom    7 type  1   force =     0.00000375    0.00002225    0.00002107
     atom    8 type  1   force =    -0.00000394    0.00000818    0.00003306
     atom    9 type  1   force =     0.00000000    0.00000000   -0.00000000
     atom   10 type  1   force =    -0.00000000   -0.00000000   -0.00000000
     atom   11 type  1   force =    -0.00000069    0.00003856    0.00006938
     atom   12 type  1   force =     0.00000060    0.00001928    0.00007496
     atom   13 type  1   force =     0.00000000    0.00000000   -0.00000000
     atom   14 type  1   force =    -0.00000000    0.00000000   -0.00000000
     atom   15 type  1   force =     0.00001311   -0.00001429    0.00002443
     atom   16 type  1   force =    -0.00001206   -0.00002109    0.00004598
     atom   17 type  1   force =    -0.00000000   -0.00000000   -0.00000000
     atom   18 type  1   force =     0.00000000    0.00000000   -0.00000000
     atom   19 type  1   force =     0.00000625   -0.00003316   -0.00002481
     atom   20 type  1   force =    -0.00000667   -0.00002845   -0.00000472
     atom   21 type  1   force =    -0.00000000   -0.00000000   -0.00000000
     atom   22 type  1   force =     0.00000000   -0.00000000   -0.00000000
     atom   23 type  1   force =     0.00001149    0.00001199    0.00002106
     atom   24 type  1   force =    -0.00001179    0.00001872    0.00003238
     atom   25 type  1   force =    -0.00000000   -0.00000000   -0.00000000
     atom   26 type  1   force =     0.00000000   -0.00000000   -0.00000000
     atom   27 type  1   force =    -0.00000235    0.00003443    0.00007018
     atom   28 type  1   force =     0.00000250    0.00002677    0.00007440
     atom   29 type  1   force =    -0.00000000    0.00000000   -0.00000000
     atom   30 type  1   force =     0.00000000    0.00000000   -0.00000000
     atom   31 type  1   force =    -0.00000693   -0.00001150    0.00003237
     atom   32 type  1   force =     0.00000650   -0.00002381    0.00003922
     atom   33 type  1   force =     0.00000000    0.00000000    0.00000000
     atom   34 type  1   force =    -0.00000000    0.00000000    0.00000000
     atom   35 type  1   force =     0.00001348   -0.00004588   -0.00000977
     atom   36 type  1   force =    -0.00001292   -0.00004697   -0.00000064
     atom   37 type  1   force =     0.00000000   -0.00000000   -0.00000000
     atom   38 type  1   force =    -0.00000000   -0.00000000    0.00000000
     atom   39 type  1   force =     0.00000971    0.00003091    0.00000639
     atom   40 type  1   force =    -0.00000844    0.00002991    0.00000250
     atom   41 type  1   force =    -0.00000000   -0.00000000    0.00000000
     atom   42 type  1   force =     0.00000000   -0.00000000    0.00000000
     atom   43 type  1   force =    -0.00000077    0.00005488   -0.00000113
     atom   44 type  1   force =     0.00000062    0.00003938   -0.00000084
     atom   45 type  1   force =     0.00000000    0.00000000    0.00000000
     atom   46 type  1   force =    -0.00000000    0.00000000    0.00000000
     atom   47 type  1   force =     0.00000373   -0.00002852   -0.00001767
     atom   48 type  1   force =    -0.00000335   -0.00003555   -0.00000787
     atom   49 type  1   force =    -0.00000000    0.00000000    0.00000000
     atom   50 type  1   force =     0.00000000    0.00000000    0.00000000
     atom   51 type  1   force =     0.00000035   -0.00004271   -0.00001250
     atom   52 type  1   force =    -0.00000078   -0.00005065    0.00000200
     atom   53 type  1   force =    -0.00000000   -0.00000000    0.00000000
     atom   54 type  1   force =     0.00000000   -0.00000000   -0.00000000
     atom   55 type  1   force =     0.00001046    0.00002893   -0.00000123
     atom   56 type  1   force =    -0.00001091    0.00003142    0.00001029
     atom   57 type  1   force =    -0.00000000   -0.00000000    0.00000000
     atom   58 type  1   force =     0.00000000   -0.00000000    0.00000000
     atom   59 type  1   force =     0.00000709    0.00004806   -0.00000074
     atom   60 type  1   force =    -0.00000690    0.00004673   -0.00000131
     atom   61 type  1   force =    -0.00000000    0.00000000    0.00000000
     atom   62 type  1   force =     0.00000000    0.00000000    0.00000000
     atom   63 type  1   force =    -0.00000046   -0.00002645   -0.00001416
     atom   64 type  1   force =    -0.00000024   -0.00003960   -0.00001142

     Total force =     0.000790     Total SCF correction =     0.000264
     SCF correction compared to forces is large: reduce conv_thr to get better values

     Computing stress (Cartesian axis) and pressure

          total   stress  (Ry/bohr**3)                   (kbar)     P=     -304.38
  -0.00206742  -0.00000000  -0.00000000         -304.13       -0.00       -0.00
  -0.00000000  -0.00206736   0.00000009           -0.00     -304.12        0.01
  -0.00000000   0.00000009  -0.00207269           -0.00        0.01     -304.90

     kinetic stress (kbar)  16716.16      0.00     -0.00
                                0.00  16716.23      0.01
                               -0.00      0.01  16803.31

     local   stress (kbar)**********      0.00      0.00
                                0.00**********     -0.51
                                0.00     -0.511558169.46

     nonloc. stress (kbar)  -2011.97     -0.00     -0.00
                               -0.00  -2012.08      0.01
                               -0.00      0.01  -2076.14

     hartree stress (kbar) 805774.38     -0.00     -0.00
                               -0.00 805764.61      0.21
                               -0.00      0.21-731740.70

     exc-cor stress (kbar)  -8371.53     -0.00     -0.00
                               -0.00  -8371.54      0.00
                               -0.00      0.00  -8382.52

     corecor stress (kbar)      0.00      0.00      0.00
                                0.00      0.00      0.00
                                0.00      0.00      0.00

     ewald   stress (kbar) 726401.34     -0.00     -0.00
                               -0.00 726388.39      0.29
                               -0.00      0.29-833078.31

     hubbard stress (kbar)      0.00      0.00      0.00
                                0.00      0.00      0.00
                                0.00      0.00      0.00

     DFT-D   stress (kbar)      0.00      0.00      0.00
                                0.00      0.00      0.00
                                0.00      0.00      0.00

     XDM     stress (kbar)      0.00      0.00      0.00
                                0.00      0.00      0.00
                                0.00      0.00      0.00

     dft-nl  stress (kbar)      0.00      0.00      0.00
                                0.00      0.00      0.00
                                0.00      0.00      0.00

     TS-vdW  stress (kbar)      0.00      0.00      0.00
                                0.00      0.00      0.00
                                0.00      0.00      0.00

     MDB     stress (kbar)      0.00      0.00      0.00
                                0.00      0.00      0.00
                                0.00      0.00      0.00

     3D-RISM stress (kbar)      0.00      0.00      0.00
                                0.00      0.00      0.00
                                0.00      0.00      0.00

     Energy error            =      2.8E-06 Ry
     Gradient error          =      3.0E-04 Ry/Bohr

     bfgs converged in  21 scf cycles and  20 bfgs steps
     (criteria: energy <  1.0E-05 Ry, force <  5.0E-04 Ry/Bohr)

     End of BFGS Geometry Optimization

     Final energy             =  -29535.6004877469 Ry

     File ./tmp/Zn002_4x4x4_relax_ecutrho250_ecutwfc25.bfgs deleted, as requested
Begin final coordinates

ATOMIC_POSITIONS (angstrom)
Zn              -0.0000000130        1.5094013740        1.2182902100    0   0   0
Zn               5.2287196980        1.5094013740        1.2182902100    0   0   0
Zn              -0.0001147904        1.5043101809        6.1799357997
Zn               5.2288454070        1.5044302250        6.1804331964
Zn              -1.3071799410        3.7735034240        1.2182902100    0   0   0
Zn               3.9215397700        3.7735034240        1.2182902100    0   0   0
Zn              -1.3072634763        3.7691627981        6.1812707211
Zn               3.9216250935        3.7692349180        6.1813276933
Zn              -2.6143598690        6.0376054730        1.2182902100    0   0   0
Zn               2.6143598420        6.0376054730        1.2182902100    0   0   0
Zn              -2.6144295260        6.0323008964        6.1819336684
Zn               2.6144297942        6.0323575701        6.1819188219
Zn              -3.9215397970        8.3017075230        1.2182902100    0   0   0
Zn               1.3071799140        8.3017075230        1.2182902100    0   0   0
Zn              -3.9216413207        8.2955810258        6.1806708067
Zn               1.3072832678        8.2956657302        6.1812427741
Zn               2.6143598430        1.5094013740        1.2182902100    0   0   0
Zn               7.8430795540        1.5094013740        1.2182902100    0   0   0
Zn               2.6144773882        1.5044848069        6.1798904358
Zn               7.8429553627        1.5042671993        6.1804993318
Zn               1.3071799150        3.7735034240        1.2182902100    0   0   0
Zn               6.5358996260        3.7735034240        1.2182902100    0   0   0
Zn               1.3072696198        3.7692531159        6.1812255746
Zn               6.5358050752        3.7691401905        6.1814179712
Zn              -0.0000000130        6.0376054730        1.2182902100    0   0   0
Zn               5.2287196980        6.0376054730        1.2182902100    0   0   0
Zn               0.0000839467        6.0323508604        6.1820010370
Zn               5.2286363875        6.0323154820        6.1818367801
Zn              -1.3071799410        8.3017075230        1.2182902100    0   0   0
Zn               3.9215397700        8.3017075230        1.2182902100    0   0   0
Zn              -1.3070616409        8.2956708503        6.1808540142
Zn               3.9214341010        8.2955745820        6.1810867797
Zn               1.3071799410        0.7547006760        3.6548706290    0   0   0
Zn               6.5358996520        0.7547006760        3.6548706290    0   0   0
Zn               1.3072058794        0.7539874532        8.7046615890
Zn               6.5358795989        0.7539642470        8.7052265109
Zn               0.0000000130        3.0188027250        3.6548706290    0   0   0
Zn               5.2287197240        3.0188027250        3.6548706290    0   0   0
Zn               0.0000501424        3.0186237406        8.7053225205
Zn               5.2286697887        3.0186270197        8.7055570344
Zn              -1.3071799150        5.2829047750        3.6548706290    0   0   0
Zn               3.9215397960        5.2829047750        3.6548706290    0   0   0
Zn              -1.3071733423        5.2826412043        8.7073702738
Zn               3.9215228801        5.2826186608        8.7074835582
Zn              -2.6143598430        7.5470068250        3.6548706290    0   0   0
Zn               2.6143598680        7.5470068250        3.6548706290    0   0   0
Zn              -2.6143832609        7.5462581101        8.7069606987
Zn               2.6143924840        7.5461903022        8.7073015544
Zn               3.9215397970        0.7547006760        3.6548706290    0   0   0
Zn               9.1502595080        0.7547006760        3.6548706290    0   0   0
Zn               3.9215662330        0.7540325071        8.7049022335
Zn               9.1502429406        0.7539208008        8.7050385708
Zn               2.6143598690        3.0188027250        3.6548706290    0   0   0
Zn               7.8430795800        3.0188027250        3.6548706290    0   0   0
Zn               2.6144385595        3.0186388984        8.7053835466
Zn               7.8429902714        3.0186213515        8.7055169170
Zn               1.3071799410        5.2829047750        3.6548706290    0   0   0
Zn               6.5358996520        5.2829047750        3.6548706290    0   0   0
Zn               1.3072823210        5.2826221253        8.7074677416
Zn               6.5357995862        5.2826346883        8.7074092751
Zn               0.0000000130        7.5470068250        3.6548706290    0   0   0
Zn               5.2287197240        7.5470068250        3.6548706290    0   0   0
Zn               0.0000374924        7.5462466704        8.7071542322
Zn               5.2286839433        7.5462082058        8.7071156931
End final coordinates

     Writing all to output data dir ./tmp/Zn002_4x4x4_relax_ecutrho250_ecutwfc25.save/ :
     XML data file, charge density, pseudopotentials, collected wavefunctions

     General routines

     Parallel routines

   This run was terminated on:   4:49:46  18Mar2025

   JOB DONE.
Note: The following floating-point exceptions are signalling: IEEE_DENORMAL
Note: The following floating-point exceptions are signalling: IEEE_DENORMAL
Note: The following floating-point exceptions are signalling: IEEE_DENORMAL
Note: The following floating-point exceptions are signalling: IEEE_DENORMAL
Note: The following floating-point exceptions are signalling: IEEE_DENORMAL
Note: The following floating-point exceptions are signalling: IEEE_DENORMAL
Note: The following floating-point exceptions are signalling: IEEE_DENORMAL
Note: The following floating-point exceptions are signalling: IEEE_DENORMAL
Note: The following floating-point exceptions are signalling: IEEE_DENORMAL
Note: The following floating-point exceptions are signalling: IEEE_DENORMAL
Note: The following floating-point exceptions are signalling: IEEE_DENORMAL
Note: The following floating-point exceptions are signalling: IEEE_DENORMAL