     Program PWSCF v.7.3.1 starts on 28Mar2025 at 14:19:41

     Waiting for input...
     Reading input from standard input
Warning: card &CELL ignored
Warning: card   CELL_DOFREE = 'ALL' ignored
Warning: card / ignored

     Current dimensions of program PWSCF are:
     Max number of different atomic species (ntypx) = 10
     Max number of k-points (npk) =  40000
     Max angular momentum in pseudopotentials (lmaxx) =  4

     R & G space division:  proc/nbgrp/npool/nimage =      35
     Subspace diagonalization in iterative solution of the eigenvalue problem:
     one sub-group per band group will be used

     Using Slab Decomposition

     bravais-lattice index     =            0
     lattice parameter (alat)  =      19.7617  a.u.
     unit-cell volume          =   15176.5939 (a.u.)^3
     number of atoms/cell      =           48
     number of atomic types    =            1
     number of electrons       =       960.00
     number of Kohn-Sham states=          576
     kinetic-energy cutoff     =      40.0000  Ry
     charge density cutoff     =     280.0000  Ry
     scf convergence threshold =      1.0E-06
     mixing beta               =       0.4000
     number of iterations used =            8  plain     mixing
     energy convergence thresh.=      1.0E-05
     force convergence thresh. =      5.0E-04
     Exchange-correlation= SLA  PW   PBE  PBE
                           (   1   4   3   4   0   0   0)
     nstep                     =          100

     celldm(1)=  19.761696  celldm(2)=   0.000000  celldm(3)=   0.000000
     celldm(4)=   0.000000  celldm(5)=   0.000000  celldm(6)=   0.000000

     crystal axes: (cart. coord. in units of alat)
               a(1) = (   1.000000   0.000000   0.000000 )
               a(2) = (  -0.500000   0.866025   0.000000 )
               a(3) = (   0.000000   0.000000   2.270759 )

     reciprocal axes: (cart. coord. in units 2 pi/alat)
               b(1) = (  1.000000  0.577350 -0.000000 )
               b(2) = (  0.000000  1.154701  0.000000 )
               b(3) = (  0.000000 -0.000000  0.440381 )

     PseudoPot. # 1 for Zn read from file:
     /home/ys/qepseudo/SSSP_1.3.0_PBE_efficiency/Zn_pbe_v1.uspp.F.UPF
     MD5 check sum: df62231357ef9e81f77b2b3087fa5675
     Pseudo is Ultrasoft, Zval = 20.0
     Generated by new atomic code, or converted to UPF format
     Using radial grid of  943 points,  6 beta functions with:
                l(1) =   0
                l(2) =   0
                l(3) =   1
                l(4) =   1
                l(5) =   2
                l(6) =   2
     Q(r) pseudized with  8 coefficients,  rinner =    1.100   1.100   1.100
                                                       1.100   1.100

     atomic species   valence    mass     pseudopotential
     Zn               20.00    65.38000     Zn( 1.00)

     No symmetry found

                                    s                        frac. trans.

      isym =  1     identity

 cryst.   s( 1) = (     1          0          0      )
                  (     0          1          0      )
                  (     0          0          1      )

 cart.    s( 1) = (  1.0000000  0.0000000  0.0000000 )
                  (  0.0000000  1.0000000  0.0000000 )
                  (  0.0000000  0.0000000  1.0000000 )

   Cartesian axes

     site n.     atom                  positions (alat units)
         1        Zn     tau(   1) = (   0.0000000   0.1443375   0.1164998  )
         2        Zn     tau(   2) = (   0.5000000   0.1443375   0.1164998  )
         3        Zn     tau(   3) = (   0.0000008   0.1443287   0.5996818  )
         4        Zn     tau(   4) = (   0.4999961   0.1443636   0.5996092  )
         5        Zn     tau(   5) = (  -0.1250000   0.3608439   0.1164998  )
         6        Zn     tau(   6) = (   0.3750000   0.3608439   0.1164998  )
         7        Zn     tau(   7) = (  -0.1250014   0.3608365   0.5995712  )
         8        Zn     tau(   8) = (   0.3750108   0.3608622   0.5994892  )
         9        Zn     tau(   9) = (  -0.2500000   0.5773502   0.1164998  )
        10        Zn     tau(  10) = (   0.2500000   0.5773502   0.1164998  )
        11        Zn     tau(  11) = (  -0.2500291   0.5773448   0.5994599  )
        12        Zn     tau(  12) = (   0.2500298   0.5773405   0.5995704  )
        13        Zn     tau(  13) = (  -0.3750000   0.7938567   0.1164998  )
        14        Zn     tau(  14) = (   0.1250000   0.7938567   0.1164998  )
        15        Zn     tau(  15) = (  -0.3750192   0.7938503   0.5995597  )
        16        Zn     tau(  16) = (   0.1250210   0.7938546   0.5996923  )
        17        Zn     tau(  17) = (   0.2500000   0.1443375   0.1164998  )
        18        Zn     tau(  18) = (   0.7500000   0.1443375   0.1164998  )
        19        Zn     tau(  19) = (   0.2499808   0.1443394   0.5997016  )
        20        Zn     tau(  20) = (   0.7500196   0.1443469   0.5995819  )
        21        Zn     tau(  21) = (   0.1250000   0.3608439   0.1164998  )
        22        Zn     tau(  22) = (   0.6250000   0.3608439   0.1164998  )
        23        Zn     tau(  23) = (   0.1249968   0.3608336   0.5996865  )
        24        Zn     tau(  24) = (   0.6249894   0.3608655   0.5993717  )
        25        Zn     tau(  25) = (   0.0000000   0.5773502   0.1164998  )
        26        Zn     tau(  26) = (   0.5000000   0.5773502   0.1164998  )
        27        Zn     tau(  27) = (  -0.0000048   0.5773285   0.5996811  )
        28        Zn     tau(  28) = (   0.5000028   0.5773490   0.5993518  )
        29        Zn     tau(  29) = (  -0.1250000   0.7938567   0.1164998  )
        30        Zn     tau(  30) = (   0.3750000   0.7938567   0.1164998  )
        31        Zn     tau(  31) = (  -0.1250309   0.7938550   0.5996904  )
        32        Zn     tau(  32) = (   0.3750259   0.7938514   0.5995577  )
        33        Zn     tau(  33) = (   0.1249792   0.0721726   0.3581392  )
        34        Zn     tau(  34) = (   0.6250232   0.0722219   0.3581048  )
        35        Zn     tau(  35) = (   0.0000042   0.2886408   0.3581388  )
        36        Zn     tau(  36) = (   0.4999973   0.2887225   0.3580491  )
        37        Zn     tau(  37) = (  -0.1250368   0.5051391   0.3580713  )
        38        Zn     tau(  38) = (   0.3750416   0.5051654   0.3580209  )
        39        Zn     tau(  39) = (  -0.2500605   0.7216974   0.3580709  )
        40        Zn     tau(  40) = (   0.2500676   0.7216835   0.3580819  )
        41        Zn     tau(  41) = (   0.3749556   0.0722083   0.3581429  )
        42        Zn     tau(  42) = (   0.8750408   0.0721787   0.3581002  )
        43        Zn     tau(  43) = (   0.2500052   0.2886728   0.3581307  )
        44        Zn     tau(  44) = (   0.7499958   0.2886849   0.3580462  )
        45        Zn     tau(  45) = (   0.1250297   0.5051286   0.3581191  )
        46        Zn     tau(  46) = (   0.6249636   0.5051713   0.3579785  )
        47        Zn     tau(  47) = (  -0.0000166   0.7216885   0.3581396  )
        48        Zn     tau(  48) = (   0.5000104   0.7216822   0.3580223  )

     DFT-D3 Dispersion Correction (3-body terms):
       Reference C6 values for interpolation:

         atom   Coordination number   C6
         Zn         0.000           681.04
         Zn         1.942           306.91

       Values used:

         atom   Coordination number  R0_AB[au]  C6      C8
         Zn         6.586            3.053    306.91  23930.67
         Zn         6.586            3.053    306.91  23930.67
         Zn         6.589            3.053    306.91  23930.67
         Zn         6.588            3.053    306.91  23930.67
         Zn         6.587            3.053    306.91  23930.67
         Zn         6.588            3.053    306.91  23930.67
         Zn         6.591            3.053    306.91  23930.67
         Zn         6.593            3.053    306.91  23930.67
         Zn         6.588            3.053    306.91  23930.67
         Zn         6.587            3.053    306.91  23930.67
         Zn         6.593            3.053    306.91  23930.67
         Zn         6.590            3.053    306.91  23930.67
         Zn         6.587            3.053    306.91  23930.67
         Zn         6.585            3.053    306.91  23930.67
         Zn         6.592            3.053    306.91  23930.67
         Zn         6.584            3.053    306.91  23930.67
         Zn         6.585            3.053    306.91  23930.67
         Zn         6.587            3.053    306.91  23930.67
         Zn         6.588            3.053    306.91  23930.67
         Zn         6.590            3.053    306.91  23930.67
         Zn         6.585            3.053    306.91  23930.67
         Zn         6.589            3.053    306.91  23930.67
         Zn         6.588            3.053    306.91  23930.67
         Zn         6.596            3.053    306.91  23930.67
         Zn         6.585            3.053    306.91  23930.67
         Zn         6.590            3.053    306.91  23930.67
         Zn         6.585            3.053    306.91  23930.67
         Zn         6.597            3.053    306.91  23930.67
         Zn         6.585            3.053    306.91  23930.67
         Zn         6.588            3.053    306.91  23930.67
         Zn         6.586            3.053    306.91  23930.67
         Zn         6.591            3.053    306.91  23930.67
         Zn         7.997            3.053    306.91  23930.67
         Zn         7.995            3.053    306.91  23930.67
         Zn         7.997            3.053    306.91  23930.67
         Zn         8.003            3.053    306.91  23930.67
         Zn         7.997            3.053    306.91  23930.67
         Zn         8.004            3.053    306.91  23930.67
         Zn         7.998            3.053    306.91  23930.67
         Zn         7.996            3.053    306.91  23930.67
         Zn         7.994            3.053    306.91  23930.67
         Zn         7.998            3.053    306.91  23930.67
         Zn         7.997            3.053    306.91  23930.67
         Zn         8.001            3.053    306.91  23930.67
         Zn         7.994            3.053    306.91  23930.67
         Zn         8.007            3.053    306.91  23930.67
         Zn         7.991            3.053    306.91  23930.67
         Zn         8.003            3.053    306.91  23930.67

         Molecular C6 ( Ry / a.u.^6 ) =    707110.50

   Crystallographic axes

     site n.     atom                  positions (cryst. coord.)
         1        Zn     tau(   1) = (  0.0833333  0.1666666  0.0513044  )
         2        Zn     tau(   2) = (  0.5833333  0.1666666  0.0513044  )
         3        Zn     tau(   3) = (  0.0833290  0.1666564  0.2640887  )
         4        Zn     tau(   4) = (  0.5833444  0.1666967  0.2640568  )
         5        Zn     tau(   5) = (  0.0833333  0.4166666  0.0513044  )
         6        Zn     tau(   6) = (  0.5833333  0.4166666  0.0513044  )
         7        Zn     tau(   7) = (  0.0833277  0.4166581  0.2640400  )
         8        Zn     tau(   8) = (  0.5833547  0.4166878  0.2640039  )
[...]
     atom   21 type  1   force =     0.00000000    0.00000000    0.00000000
     atom   22 type  1   force =     0.00000000    0.00000000    0.00000000
     atom   23 type  1   force =     0.00000000    0.00000000    0.00000000
     atom   24 type  1   force =     0.00000000    0.00000000    0.00000000
     atom   25 type  1   force =     0.00000000    0.00000000    0.00000000
     atom   26 type  1   force =     0.00000000    0.00000000    0.00000000
     atom   27 type  1   force =     0.00000000    0.00000000    0.00000000
     atom   28 type  1   force =     0.00000000    0.00000000    0.00000000
     atom   29 type  1   force =     0.00000000    0.00000000    0.00000000
     atom   30 type  1   force =     0.00000000    0.00000000    0.00000000
     atom   31 type  1   force =     0.00000000    0.00000000    0.00000000
     atom   32 type  1   force =     0.00000000    0.00000000    0.00000000
     atom   33 type  1   force =     0.00000000    0.00000000    0.00000000
     atom   34 type  1   force =     0.00000000    0.00000000    0.00000000
     atom   35 type  1   force =     0.00000000    0.00000000    0.00000000
     atom   36 type  1   force =     0.00000000    0.00000000    0.00000000
     atom   37 type  1   force =     0.00000000    0.00000000    0.00000000
     atom   38 type  1   force =     0.00000000    0.00000000    0.00000000
     atom   39 type  1   force =     0.00000000    0.00000000    0.00000000
     atom   40 type  1   force =     0.00000000    0.00000000    0.00000000
     atom   41 type  1   force =     0.00000000    0.00000000    0.00000000
     atom   42 type  1   force =     0.00000000    0.00000000    0.00000000
     atom   43 type  1   force =     0.00000000    0.00000000    0.00000000
     atom   44 type  1   force =     0.00000000    0.00000000    0.00000000
     atom   45 type  1   force =     0.00000000    0.00000000    0.00000000
     atom   46 type  1   force =     0.00000000    0.00000000    0.00000000
     atom   47 type  1   force =     0.00000000    0.00000000    0.00000000
     atom   48 type  1   force =     0.00000000    0.00000000    0.00000000
     The SCF correction term to forces
     atom    1 type  1   force =     0.00000000    0.00000000    0.00000000
     atom    2 type  1   force =    -0.00000000    0.00000000    0.00000000
     atom    3 type  1   force =     0.00000688    0.00000351   -0.00007451
     atom    4 type  1   force =    -0.00000443    0.00008071   -0.00003927
     atom    5 type  1   force =    -0.00000000   -0.00000000    0.00000000
     atom    6 type  1   force =     0.00000000    0.00000000    0.00000000
     atom    7 type  1   force =    -0.00003390   -0.00001572   -0.00007888
     atom    8 type  1   force =     0.00003334    0.00002015   -0.00006670
     atom    9 type  1   force =    -0.00000000   -0.00000000    0.00000000
     atom   10 type  1   force =     0.00000000   -0.00000000    0.00000000
     atom   11 type  1   force =    -0.00006609   -0.00003948   -0.00007910
     atom   12 type  1   force =     0.00006987   -0.00004719   -0.00003442
     atom   13 type  1   force =    -0.00000000   -0.00000000    0.00000000
     atom   14 type  1   force =     0.00000000    0.00000000    0.00000000
     atom   15 type  1   force =    -0.00002873   -0.00001876   -0.00007549
     atom   16 type  1   force =     0.00002965    0.00001907    0.00000051
     atom   17 type  1   force =    -0.00000000    0.00000000    0.00000000
     atom   18 type  1   force =     0.00000000    0.00000000    0.00000000
     atom   19 type  1   force =    -0.00005554    0.00000659   -0.00005901
     atom   20 type  1   force =     0.00005424    0.00007566   -0.00006537
     atom   21 type  1   force =    -0.00000000   -0.00000000    0.00000000
     atom   22 type  1   force =     0.00000000    0.00000000    0.00000000
     atom   23 type  1   force =    -0.00002092   -0.00005131   -0.00005922
     atom   24 type  1   force =     0.00002097    0.00005576   -0.00009083
     atom   25 type  1   force =    -0.00000000   -0.00000000    0.00000000
     atom   26 type  1   force =     0.00000000   -0.00000000    0.00000000
     atom   27 type  1   force =    -0.00006016   -0.00007439   -0.00002939
     atom   28 type  1   force =     0.00005760   -0.00001198   -0.00008344
     atom   29 type  1   force =    -0.00000000   -0.00000000    0.00000000
     atom   30 type  1   force =     0.00000000    0.00000000    0.00000000
     atom   31 type  1   force =    -0.00009361   -0.00001380   -0.00003029
     atom   32 type  1   force =     0.00009258    0.00001054   -0.00005823
     atom   33 type  1   force =    -0.00003780   -0.00000396    0.00014674
     atom   34 type  1   force =     0.00004934    0.00010964    0.00013323
     atom   35 type  1   force =    -0.00002741   -0.00003588    0.00014429
     atom   36 type  1   force =     0.00003338    0.00008234    0.00014430
     atom   37 type  1   force =    -0.00008740   -0.00006644    0.00014653
     atom   38 type  1   force =     0.00009379   -0.00002269    0.00014887
     atom   39 type  1   force =    -0.00009712   -0.00003810    0.00014737
     atom   40 type  1   force =     0.00011334   -0.00000284    0.00013753
     atom   41 type  1   force =    -0.00008688    0.00004522    0.00013369
     atom   42 type  1   force =     0.00007368    0.00004919    0.00014372
     atom   43 type  1   force =    -0.00002148   -0.00001999    0.00013851
     atom   44 type  1   force =     0.00001519    0.00005540    0.00014676
     atom   45 type  1   force =    -0.00000947   -0.00009921    0.00013780
     atom   46 type  1   force =     0.00000587   -0.00000300    0.00015279
     atom   47 type  1   force =    -0.00007461   -0.00003703    0.00013342
     atom   48 type  1   force =     0.00006305   -0.00001063    0.00015180

     DFT-D3 dispersion contribution to forces:
     atom    1 type  1   force =     0.00000071   -0.00000040    0.00268593
     atom    2 type  1   force =    -0.00000067   -0.00000109    0.00268009
     atom    3 type  1   force =    -0.00000065   -0.00000074   -0.00268389
     atom    4 type  1   force =     0.00000095    0.00000683   -0.00268239
     atom    5 type  1   force =     0.00000107    0.00000042    0.00268313
     atom    6 type  1   force =    -0.00000103    0.00000020    0.00268247
     atom    7 type  1   force =    -0.00000492    0.00000459   -0.00268704
     atom    8 type  1   force =     0.00000532    0.00000761   -0.00268673
     atom    9 type  1   force =     0.00000054    0.00000113    0.00268254
     atom   10 type  1   force =    -0.00000057    0.00000042    0.00267875
     atom   11 type  1   force =    -0.00000656   -0.00000351   -0.00268815
     atom   12 type  1   force =     0.00000616   -0.00000238   -0.00268508
     atom   13 type  1   force =     0.00000011    0.00000029    0.00268563
     atom   14 type  1   force =    -0.00000016   -0.00000097    0.00267668
     atom   15 type  1   force =    -0.00000231   -0.00000864   -0.00268429
     atom   16 type  1   force =     0.00000224   -0.00000368   -0.00268083
     atom   17 type  1   force =    -0.00000007   -0.00000024    0.00268555
     atom   18 type  1   force =     0.00000004   -0.00000131    0.00268044
     atom   19 type  1   force =    -0.00000057    0.00000123   -0.00268192
     atom   20 type  1   force =     0.00000031    0.00000468   -0.00268413
     atom   21 type  1   force =     0.00000041    0.00000061    0.00268355
     atom   22 type  1   force =    -0.00000041    0.00000002    0.00268189
     atom   23 type  1   force =     0.00000114    0.00000350   -0.00268485
     atom   24 type  1   force =    -0.00000149    0.00000860   -0.00268967
     atom   25 type  1   force =     0.00000087    0.00000077    0.00267924
     atom   26 type  1   force =    -0.00000085    0.00000088    0.00268223
     atom   27 type  1   force =    -0.00000252   -0.00000287   -0.00268375
     atom   28 type  1   force =     0.00000289   -0.00000318   -0.00268974
     atom   29 type  1   force =     0.00000050   -0.00000012    0.00268114
     atom   30 type  1   force =    -0.00000046   -0.00000069    0.00268091
     atom   31 type  1   force =    -0.00000445   -0.00000544   -0.00268124
     atom   32 type  1   force =     0.00000444   -0.00000671   -0.00268420
     atom   33 type  1   force =    -0.00000383   -0.00000423   -0.00000304
     atom   34 type  1   force =     0.00000394    0.00000896    0.00000234
     atom   35 type  1   force =    -0.00000882    0.00000568    0.00000036
     atom   36 type  1   force =     0.00000887    0.00001334    0.00000525
     atom   37 type  1   force =    -0.00001124   -0.00000455    0.00000517
     atom   38 type  1   force =     0.00001119   -0.00000048    0.00000709
     atom   39 type  1   force =    -0.00000591   -0.00001412    0.00000230
     atom   40 type  1   force =     0.00000606   -0.00000443    0.00000395
     atom   41 type  1   force =     0.00000583    0.00000415   -0.00000121
     atom   42 type  1   force =    -0.00000597    0.00000051    0.00000112
     atom   43 type  1   force =     0.00000864    0.00001027    0.00000016
     atom   44 type  1   force =    -0.00000876    0.00000893    0.00000539
     atom   45 type  1   force =     0.00000372    0.00000108    0.00000340
     atom   46 type  1   force =    -0.00000360   -0.00000602    0.00000938
     atom   47 type  1   force =     0.00000105   -0.00000459    0.00000177
     atom   48 type  1   force =    -0.00000117   -0.00001429    0.00000433

     Total force =     0.001283     Total SCF correction =     0.000760

     DFT-D3 dispersion Force =     0.015180
     SCF correction compared to forces is large: reduce conv_thr to get better values

     Computing stress (Cartesian axis) and pressure

          total   stress  (Ry/bohr**3)                   (kbar)     P=       -8.64
  -0.00008710   0.00000000   0.00000000          -12.81        0.00        0.00
   0.00000000  -0.00008710   0.00000000            0.00      -12.81        0.00
   0.00000000   0.00000000  -0.00000205            0.00        0.00       -0.30

     kinetic stress (kbar)  12453.78      0.00      0.00
                                0.00  12453.78      0.00
                                0.00      0.00  12533.38

     local   stress (kbar)**********      0.02     -0.00
                                0.02**********     -0.01
                               -0.00     -0.011239110.63

     nonloc. stress (kbar)  -1306.78     -0.00      0.00
                               -0.00  -1306.78      0.00
                                0.00      0.00  -1351.39

     hartree stress (kbar) 638937.65     -0.01      0.00
                               -0.01 638937.61      0.00
                                0.00      0.00-583321.88

     exc-cor stress (kbar)  -6281.64     -0.00      0.00
                               -0.00  -6281.64      0.00
                                0.00      0.00  -6291.03

     corecor stress (kbar)      0.00      0.00      0.00
                                0.00      0.00      0.00
                                0.00      0.00      0.00

     ewald   stress (kbar) 580705.19     -0.01      0.00
                               -0.01 580705.15      0.01
                                0.00      0.01-660676.10

     hubbard stress (kbar)      0.00      0.00      0.00
                                0.00      0.00      0.00
                                0.00      0.00      0.00

     DFT-D   stress (kbar)    -10.16      0.00     -0.00
                                0.00    -10.16     -0.00
                               -0.00     -0.00     -3.93

     XDM     stress (kbar)      0.00      0.00      0.00
                                0.00      0.00      0.00
                                0.00      0.00      0.00

     dft-nl  stress (kbar)      0.00      0.00      0.00
                                0.00      0.00      0.00
                                0.00      0.00      0.00

     TS-vdW  stress (kbar)      0.00      0.00      0.00
                                0.00      0.00      0.00
                                0.00      0.00      0.00

     MDB     stress (kbar)      0.00      0.00      0.00
                                0.00      0.00      0.00
                                0.00      0.00      0.00

     3D-RISM stress (kbar)      0.00      0.00      0.00
                                0.00      0.00      0.00
                                0.00      0.00      0.00

     Energy error            =      2.4E-06 Ry
     Gradient error          =      3.5E-04 Ry/Bohr

     bfgs converged in  21 scf cycles and  20 bfgs steps
     (criteria: energy <  1.0E-05 Ry, force <  5.0E-04 Ry/Bohr)

     End of BFGS Geometry Optimization

     Final energy             =  -22155.0531478903 Ry

     File ./tmp/Zn002_3layer_relax.bfgs deleted, as requested
Begin final coordinates

ATOMIC_POSITIONS (angstrom)
Zn               0.0000000000        1.5094010000        1.2182900000    0   0   0
Zn               5.2287200000        1.5094010000        1.2182900000    0   0   0
Zn              -0.0000295242        1.5093100836        6.1627222677
Zn               5.2287855090        1.5102240454        6.1638493075
Zn              -1.3071800000        3.7735030000        1.2182900000    0   0   0
Zn               3.9215400000        3.7735030000        1.2182900000    0   0   0
Zn              -1.3077223284        3.7740258440        6.1629587774
Zn               3.9221248309        3.7744160599        6.1628402142
Zn              -2.6143600000        6.0376050000        1.2182900000    0   0   0
Zn               2.6143600000        6.0376050000        1.2182900000    0   0   0
Zn              -2.6151492611        6.0371996707        6.1626339098
Zn               2.6150977159        6.0372825207        6.1632832564
Zn              -3.9215400000        8.3017080000        1.2182900000    0   0   0
Zn               1.3071800000        8.3017080000        1.2182900000    0   0   0
Zn              -3.9218349529        8.3007180779        6.1624873501
Zn               1.3074532867        8.3012397707        6.1642396095
Zn               2.6143600000        1.5094010000        1.2182900000    0   0   0
Zn               7.8430800000        1.5094010000        1.2182900000    0   0   0
Zn               2.6142224358        1.5095489592        6.1628403062
Zn               7.8431742227        1.5099540152        6.1637933875
Zn               1.3071800000        3.7735030000        1.2182900000    0   0   0
Zn               6.5359000000        3.7735030000        1.2182900000    0   0   0
Zn               1.3073143044        3.7739013444        6.1627625068
Zn               6.5357189081        3.7745378166        6.1628835300
Zn               0.0000000000        6.0376050000        1.2182900000    0   0   0
Zn               5.2287200000        6.0376050000        1.2182900000    0   0   0
Zn              -0.0002891573        6.0372263285        6.1634442694
Zn               5.2290382635        6.0372452219        6.1623846302
Zn              -1.3071800000        8.3017080000        1.2182900000    0   0   0
Zn               3.9215400000        8.3017080000        1.2182900000    0   0   0
Zn              -1.3077485846        8.3010559907        6.1634728384
Zn               3.9220934955        8.3009130525        6.1632618261
Zn               1.3067660044        0.7542510564        3.6896165056
Zn               6.5363196642        0.7556362650        3.6918082616
Zn              -0.0009504533        3.0194363528        3.6906057150
Zn               5.2296699809        3.0202370535        3.6918587932
Zn              -1.3083505915        5.2824355062        3.6916980251
Zn               3.9227056408        5.2828646867        3.6918564579
Zn              -2.6149651840        7.5454960506        3.6907884329
Zn               2.6149676292        7.5465224925        3.6917284211
Zn               3.9222115966        0.7551315231        3.6905303951
Zn               9.1495640261        0.7547390371        3.6910127271
Zn               2.6152891471        3.0199287198        3.6904787489
Zn               7.8421282796        3.0197464424        3.6920114770
Zn               1.3075838698        5.2830750565        3.6913641639
Zn               6.5354964084        5.2822581357        3.6922143305
Zn               0.0001626705        7.5465125270        3.6913496784
Zn               5.2285427394        7.5454782772        3.6911006978
End final coordinates

     Writing all to output data dir ./tmp/Zn002_3layer_relax.save/ :
     XML data file, charge density, pseudopotentials, collected wavefunctions

     General routines

     Parallel routines

   This run was terminated on:   1:17:49  29Mar2025

   JOB DONE.