     Program PWSCF v.7.3.1 starts on  2Feb1998 at 12:12:23

     Waiting for input...
     Reading input from standard input
Warning: card &CELL ignored
Warning: card   CELL_DOFREE = 'ALL' ignored
Warning: card / ignored

     Current dimensions of program PWSCF are:
     Max number of different atomic species (ntypx) = 10
     Max number of k-points (npk) =  40000
     Max angular momentum in pseudopotentials (lmaxx) =  4
     Message from routine input:
     WARNING: "startingwfc" set to atomic+random may spoil restart
     Message from routine input:
     WARNING: "startingpot" set to atomic may spoil restart
     file C.pbe-n-kjpaw_psl.1.0.0.UPF: wavefunction(s)  2S 2P renormalized

     R & G space division:  proc/nbgrp/npool/nimage =      40
     Subspace diagonalization in iterative solution of the eigenvalue problem:
     one sub-group per band group will be used

     Using Slab Decomposition

     bravais-lattice index     =            0
     lattice parameter (alat)  =      19.7617  a.u.
     unit-cell volume          =   15176.5939 (a.u.)^3
     number of atoms/cell      =           79
     number of atomic types    =            4
     number of electrons       =      1324.00
     number of Kohn-Sham states=          794
     kinetic-energy cutoff     =      30.0000  Ry
     charge density cutoff     =     120.0000  Ry
     scf convergence threshold =      7.3E-07
     mixing beta               =       0.7000
     number of iterations used =            8  plain     mixing
     energy convergence thresh.=      1.0E-05
     force convergence thresh. =      5.0E-04
     Exchange-correlation= PBE
                           (   1   4   3   4   0   0   0)
     nstep                     =          100

     celldm(1)=  19.761696  celldm(2)=   0.000000  celldm(3)=   0.000000
     celldm(4)=   0.000000  celldm(5)=   0.000000  celldm(6)=   0.000000

     crystal axes: (cart. coord. in units of alat)
               a(1) = (   1.000000   0.000000   0.000000 )
               a(2) = (  -0.500000   0.866025   0.000000 )
               a(3) = (   0.000000   0.000000   2.270759 )

     reciprocal axes: (cart. coord. in units 2 pi/alat)
               b(1) = (  1.000000  0.577350 -0.000000 )
               b(2) = (  0.000000  1.154701  0.000000 )
               b(3) = (  0.000000 -0.000000  0.440381 )

     PseudoPot. # 1 for Zn read from file:
     /home/ys/qepseudo/SSSP_1.3.0_PBE_efficiency/Zn_pbe_v1.uspp.F.UPF
     MD5 check sum: df62231357ef9e81f77b2b3087fa5675
     Pseudo is Ultrasoft, Zval = 20.0
     Generated by new atomic code, or converted to UPF format
     Using radial grid of  943 points,  6 beta functions with:
                l(1) =   0
                l(2) =   0
                l(3) =   1
                l(4) =   1
                l(5) =   2
                l(6) =   2
     Q(r) pseudized with  8 coefficients,  rinner =    1.100   1.100   1.100
                                                       1.100   1.100

     PseudoPot. # 2 for C  read from file:
     /home/ys/qepseudo/SSSP_1.3.0_PBE_efficiency/C.pbe-n-kjpaw_psl.1.0.0.UPF
     MD5 check sum: 5d2aebdfa2cae82b50a7e79e9516da0f
     Pseudo is Projector augmented-wave + core cor, Zval =  4.0
     Generated using "atomic" code by A. Dal Corso  v.5.1
     Shape of augmentation charge: PSQ
     Using radial grid of 1073 points,  4 beta functions with:
                l(1) =   0
                l(2) =   0
                l(3) =   1
                l(4) =   1
     Q(r) pseudized with 0 coefficients

     PseudoPot. # 3 for N  read from file:
     /home/ys/qepseudo/SSSP_1.3.0_PBE_efficiency/N.pbe-n-radius_5.UPF
     MD5 check sum: 16739722b17309cd8fe442a2ace49922
     Pseudo is Ultrasoft + core correction, Zval =  5.0
     Generated using "atomic" code by A. Dal Corso  v.5.1
     Using radial grid of 1085 points,  4 beta functions with:
                l(1) =   0
                l(2) =   0
                l(3) =   1
                l(4) =   1
     Q(r) pseudized with 0 coefficients

     PseudoPot. # 4 for H  read from file:
     /home/ys/qepseudo/SSSP_1.3.0_PBE_efficiency/H.pbe-rrkjus_psl.1.0.0.UPF
     MD5 check sum: f52b6d4d1c606e5624b1dc7b2218f220
     Pseudo is Ultrasoft, Zval =  1.0
     Generated using "atomic" code by A. Dal Corso  v.5.1
     Using radial grid of  929 points,  2 beta functions with:
                l(1) =   0
                l(2) =   0
     Q(r) pseudized with 0 coefficients

     atomic species   valence    mass     pseudopotential
     Zn               20.00    65.38000     Zn( 1.00)
     C                 4.00    12.01070     C ( 1.00)
     N                 5.00    14.00670     N ( 1.00)
     H                 1.00     1.00800     H ( 1.00)

     No symmetry found

                                    s                        frac. trans.

      isym =  1     identity

 cryst.   s( 1) = (     1          0          0      )
                  (     0          1          0      )
                  (     0          0          1      )

 cart.    s( 1) = (  1.0000000  0.0000000  0.0000000 )
                  (  0.0000000  1.0000000  0.0000000 )
                  (  0.0000000  0.0000000  1.0000000 )

   Cartesian axes

     site n.     atom                  positions (alat units)
         1        Zn     tau(   1) = (  -0.0000000   0.1443376   0.1164999  )
         2        Zn     tau(   2) = (   0.5000000   0.1443376   0.1164999  )
         3        Zn     tau(   3) = (  -0.0002016   0.1441727   0.5716557  )
         4        Zn     tau(   4) = (   0.4998820   0.1441083   0.5716502  )
         5        Zn     tau(   5) = (  -0.1250000   0.3608439   0.1164999  )
         6        Zn     tau(   6) = (   0.3750000   0.3608439   0.1164999  )
         7        Zn     tau(   7) = (  -0.1251678   0.3607422   0.5717694  )
         8        Zn     tau(   8) = (   0.3749175   0.3605821   0.5711596  )
         9        Zn     tau(   9) = (  -0.2500000   0.5773503   0.1164999  )
        10        Zn     tau(  10) = (   0.2500000   0.5773503   0.1164999  )
        11        Zn     tau(  11) = (  -0.2501029   0.5772524   0.5716492  )
        12        Zn     tau(  12) = (   0.2496308   0.5773790   0.5714446  )
        13        Zn     tau(  13) = (  -0.3750000   0.7938566   0.1164999  )
        14        Zn     tau(  14) = (   0.1250000   0.7938566   0.1164999  )
        15        Zn     tau(  15) = (  -0.3751195   0.7937319   0.5717699  )
        16        Zn     tau(  16) = (   0.1247796   0.7937292   0.5717748  )
        17        Zn     tau(  17) = (   0.2500000   0.1443376   0.1164999  )
        18        Zn     tau(  18) = (   0.7500000   0.1443376   0.1164999  )
        19        Zn     tau(  19) = (   0.2498050   0.1440158   0.5716896  )
        20        Zn     tau(  20) = (   0.7498584   0.1442228   0.5715646  )
        21        Zn     tau(  21) = (   0.1250000   0.3608439   0.1164999  )
        22        Zn     tau(  22) = (   0.6250000   0.3608439   0.1164999  )
        23        Zn     tau(  23) = (   0.1246140   0.3607226   0.5715358  )
        24        Zn     tau(  24) = (   0.6249730   0.3607024   0.5715821  )
        25        Zn     tau(  25) = (  -0.0000000   0.5773503   0.1164999  )
        26        Zn     tau(  26) = (   0.5000000   0.5773503   0.1164999  )
        27        Zn     tau(  27) = (  -0.0002379   0.5772472   0.5719041  )
        28        Zn     tau(  28) = (   0.5000367   0.5773684   0.5714694  )
        29        Zn     tau(  29) = (  -0.1250000   0.7938566   0.1164999  )
        30        Zn     tau(  30) = (   0.3750000   0.7938566   0.1164999  )
        31        Zn     tau(  31) = (  -0.1251749   0.7936704   0.5716131  )
        32        Zn     tau(  32) = (   0.3748555   0.7938158   0.5717276  )
        33        Zn     tau(  33) = (   0.1250000   0.0721688   0.3494996  )
        34        Zn     tau(  34) = (   0.6250000   0.0721688   0.3494996  )
        35        Zn     tau(  35) = (   0.1243428   0.0717981   0.8154864  )
        36        Zn     tau(  36) = (   0.6244334   0.0718845   0.8155086  )
        37        Zn     tau(  37) = (   0.0000000   0.2886751   0.3494996  )
        38        Zn     tau(  38) = (   0.5000000   0.2886751   0.3494996  )
        39        Zn     tau(  39) = (  -0.0006111   0.2884117   0.8155437  )
        40        Zn     tau(  40) = (   0.4994444   0.2883329   0.8153846  )
        41        Zn     tau(  41) = (  -0.1250000   0.5051815   0.3494996  )
        42        Zn     tau(  42) = (   0.3750000   0.5051815   0.3494996  )
        43        Zn     tau(  43) = (  -0.1255778   0.5048966   0.8156649  )
        44        Zn     tau(  44) = (   0.3744073   0.5050310   0.8102689  )
        45        Zn     tau(  45) = (  -0.2500000   0.7216878   0.3494996  )
        46        Zn     tau(  46) = (   0.2500000   0.7216878   0.3494996  )
        47        Zn     tau(  47) = (  -0.2505264   0.7214164   0.8151167  )
        48        Zn     tau(  48) = (   0.2493459   0.7213996   0.8158021  )
        49        Zn     tau(  49) = (   0.3750000   0.0721688   0.3494996  )
        50        Zn     tau(  50) = (   0.8750000   0.0721688   0.3494996  )
        51        Zn     tau(  51) = (   0.3744016   0.0718054   0.8156468  )
        52        Zn     tau(  52) = (   0.8744399   0.0719074   0.8150305  )
        53        Zn     tau(  53) = (   0.2500000   0.2886751   0.3494996  )
        54        Zn     tau(  54) = (   0.7500000   0.2886751   0.3494996  )
        55        Zn     tau(  55) = (   0.2492871   0.2882327   0.8120018  )
        56        Zn     tau(  56) = (   0.7494240   0.2883875   0.8154822  )
        57        Zn     tau(  57) = (   0.1250000   0.5051815   0.3494996  )
        58        Zn     tau(  58) = (   0.6250000   0.5051815   0.3494996  )
        59        Zn     tau(  59) = (   0.1243006   0.5048992   0.8164612  )
        60        Zn     tau(  60) = (   0.6245215   0.5049078   0.8153692  )
[...]
        65        C      tau(  65) = (   0.0963709   0.5784558   1.6266888  )
        66        C      tau(  66) = (   0.1596832   0.5415008   1.5118659  )
        67        C      tau(  67) = (   0.1333543   0.4224384   1.4540457  )
        68        C      tau(  68) = (   0.2496996   0.6236650   1.4538736  )
        69        C      tau(  69) = (   0.3112442   0.5880076   1.3420239  )
        70        C      tau(  70) = (   0.1949063   0.3867807   1.3421316  )
        71        C      tau(  71) = (   0.2850806   0.4688814   1.2837719  )
        72        N      tau(  72) = (   0.0442932   0.6092614   1.7212925  )
        73        N      tau(  73) = (   0.3500582   0.4315732   1.1754049  )
        74        H      tau(  74) = (   0.3948602   0.5002655   1.1226778  )
        75        H      tau(  75) = (   0.3131805   0.3586871   1.1222124  )
        76        H      tau(  76) = (   0.0638064   0.3581644   1.4984914  )
        77        H      tau(  77) = (   0.2706613   0.7160978   1.4980945  )
        78        H      tau(  78) = (   0.3813670   0.6523333   1.2982468  )
        79        H      tau(  79) = (   0.1740985   0.2938469   1.2985597  )

   Crystallographic axes

[...]
     atom   75 type  4   force =     0.00000000    0.00000000    0.00000000
     atom   76 type  4   force =     0.00000000    0.00000000    0.00000000
     atom   77 type  4   force =     0.00000000    0.00000000    0.00000000
     atom   78 type  4   force =     0.00000000    0.00000000    0.00000000
     atom   79 type  4   force =     0.00000000    0.00000000    0.00000000
     The SCF correction term to forces
     atom    1 type  1   force =    -0.00000000    0.00000000   -0.00000000
     atom    2 type  1   force =     0.00000000   -0.00000000   -0.00000000
     atom    3 type  1   force =     0.00008696   -0.00010684   -0.00006319
     atom    4 type  1   force =    -0.00009372    0.00020953   -0.00009956
     atom    5 type  1   force =     0.00000000    0.00000000   -0.00000000
     atom    6 type  1   force =    -0.00000000    0.00000000   -0.00000000
     atom    7 type  1   force =    -0.00007069   -0.00008695   -0.00016830
     atom    8 type  1   force =     0.00011146   -0.00004620   -0.00014622
     atom    9 type  1   force =     0.00000000    0.00000000   -0.00000000
     atom   10 type  1   force =    -0.00000000    0.00000000   -0.00000000
     atom   11 type  1   force =    -0.00021735    0.00001320   -0.00011719
     atom   12 type  1   force =     0.00022656   -0.00010141   -0.00027217
     atom   13 type  1   force =     0.00000000   -0.00000000   -0.00000000
     atom   14 type  1   force =    -0.00000000   -0.00000000   -0.00000000
     atom   15 type  1   force =    -0.00007342    0.00002187   -0.00002753
     atom   16 type  1   force =     0.00004662    0.00011663   -0.00023358
     atom   17 type  1   force =     0.00000000   -0.00000000   -0.00000000
     atom   18 type  1   force =    -0.00000000   -0.00000000   -0.00000000
     atom   19 type  1   force =     0.00004081    0.00007870   -0.00006169
     atom   20 type  1   force =    -0.00003838    0.00003743   -0.00011014
     atom   21 type  1   force =    -0.00000000    0.00000000   -0.00000000
     atom   22 type  1   force =     0.00000000   -0.00000000   -0.00000000
     atom   23 type  1   force =     0.00017639   -0.00014920   -0.00021331
     atom   24 type  1   force =    -0.00022180    0.00000848   -0.00008821
     atom   25 type  1   force =    -0.00000000    0.00000000   -0.00000000
     atom   26 type  1   force =     0.00000000    0.00000000   -0.00000000
     atom   27 type  1   force =    -0.00000827   -0.00002892   -0.00028447
     atom   28 type  1   force =    -0.00002383   -0.00008678   -0.00010426
     atom   29 type  1   force =     0.00000000   -0.00000000   -0.00000000
     atom   30 type  1   force =    -0.00000000    0.00000000   -0.00000000
     atom   31 type  1   force =    -0.00013294    0.00015376   -0.00014142
     atom   32 type  1   force =     0.00016558   -0.00002358   -0.00010973
     atom   33 type  1   force =     0.00000000    0.00000000   -0.00000000
     atom   34 type  1   force =    -0.00000000   -0.00000000   -0.00000000
     atom   35 type  1   force =     0.00000438   -0.00008786    0.00047146
     atom   36 type  1   force =    -0.00002762    0.00013224    0.00058101
     atom   37 type  1   force =     0.00000000    0.00000000   -0.00000000
     atom   38 type  1   force =    -0.00000000    0.00000000   -0.00000000
     atom   39 type  1   force =    -0.00003674   -0.00019007    0.00055899
     atom   40 type  1   force =     0.00006008   -0.00004685    0.00034733
     atom   41 type  1   force =     0.00000000    0.00000000   -0.00000000
     atom   42 type  1   force =    -0.00000000   -0.00000000   -0.00000000
     atom   43 type  1   force =    -0.00019411   -0.00000737    0.00066739
     atom   44 type  1   force =     0.00023781   -0.00003294    0.00028657
     atom   45 type  1   force =     0.00000000   -0.00000000   -0.00000000
     atom   46 type  1   force =    -0.00000000   -0.00000000   -0.00000000
     atom   47 type  1   force =    -0.00013059    0.00007756    0.00058241
     atom   48 type  1   force =     0.00012949    0.00016764    0.00055360
     atom   49 type  1   force =     0.00000000    0.00000000   -0.00000000
     atom   50 type  1   force =    -0.00000000   -0.00000000   -0.00000000
     atom   51 type  1   force =    -0.00007282    0.00002621    0.00050465
     atom   52 type  1   force =     0.00009281    0.00000785    0.00053725
     atom   53 type  1   force =     0.00000000    0.00000000   -0.00000000
     atom   54 type  1   force =    -0.00000000    0.00000000   -0.00000000
     atom   55 type  1   force =     0.00006134   -0.00023268    0.00033982
     atom   56 type  1   force =    -0.00007960   -0.00001916    0.00056255
     atom   57 type  1   force =     0.00000000    0.00000000   -0.00000000
     atom   58 type  1   force =    -0.00000000   -0.00000000   -0.00000000
     atom   59 type  1   force =    -0.00004451   -0.00006135    0.00055369
     atom   60 type  1   force =    -0.00000044    0.00002277    0.00044860
[...]
     atom   65 type  2   force =     0.00000928   -0.00000590   -0.00001876
     atom   66 type  2   force =    -0.00001334    0.00000775    0.00001795
     atom   67 type  2   force =    -0.00001298   -0.00000606    0.00000614
     atom   68 type  2   force =    -0.00000121    0.00001416    0.00000618
     atom   69 type  2   force =    -0.00004396    0.00001106    0.00006122
     atom   70 type  2   force =    -0.00003142    0.00003234    0.00006075
     atom   71 type  2   force =    -0.00004789    0.00002725    0.00007452
     atom   72 type  3   force =     0.00006467   -0.00003876   -0.00011671
     atom   73 type  3   force =    -0.00002079    0.00001133    0.00002672
     atom   74 type  4   force =     0.00001001    0.00001569   -0.00000729
     atom   75 type  4   force =    -0.00000857   -0.00001647   -0.00000734
     atom   76 type  4   force =     0.00000750    0.00000979   -0.00000315
     atom   77 type  4   force =    -0.00000475   -0.00001145   -0.00000313
     atom   78 type  4   force =    -0.00000226    0.00000488    0.00000683
     atom   79 type  4   force =    -0.00000535   -0.00000043    0.00000676

     Total force =     0.001674     Total SCF correction =     0.002362
     SCF correction compared to forces is large: reduce conv_thr to get better values

     Computing stress (Cartesian axis) and pressure

     negative rho (up, down):  3.510E-02 0.000E+00
          total   stress  (Ry/bohr**3)                   (kbar)     P=     -301.77
  -0.00203338  -0.00000163   0.00000108         -299.12       -0.24        0.16
  -0.00000163  -0.00203494   0.00000025           -0.24     -299.35        0.04
   0.00000108   0.00000025  -0.00208592            0.16        0.04     -306.85

     kinetic stress (kbar)  17250.20    -18.95     32.19
                              -18.95  17228.27    -18.63
                               32.19    -18.63  17303.01

     local   stress (kbar)**********   -342.06   1268.46
                             -342.06**********   -743.25
                             1268.46   -743.251514894.89

     nonloc. stress (kbar)  -1886.85      0.74     -3.39
                                0.74  -1885.98      1.97
                               -3.39      1.97  -1926.19

     hartree stress (kbar) 785691.84    117.66   -497.45
                              117.66 785828.95    291.47
                             -497.45    291.47-710398.45

     exc-cor stress (kbar)  -8417.53      0.82     -1.72
                                0.82  -8416.57      1.00
                               -1.72      1.00  -8425.73

     corecor stress (kbar)    -80.74     -0.44      0.80
                               -0.44    -81.25     -0.46
                                0.80     -0.46    -81.02

     ewald   stress (kbar) 705543.45    241.97   -798.72
                              241.97 705825.04    467.94
                             -798.72    467.94-811673.36

     hubbard stress (kbar)      0.00      0.00      0.00
                                0.00      0.00      0.00
                                0.00      0.00      0.00

     DFT-D   stress (kbar)      0.00      0.00      0.00
                                0.00      0.00      0.00
                                0.00      0.00      0.00

     XDM     stress (kbar)      0.00      0.00      0.00
                                0.00      0.00      0.00
                                0.00      0.00      0.00

     dft-nl  stress (kbar)      0.00      0.00      0.00
                                0.00      0.00      0.00
                                0.00      0.00      0.00

     TS-vdW  stress (kbar)      0.00      0.00      0.00
                                0.00      0.00      0.00
                                0.00      0.00      0.00

     MDB     stress (kbar)      0.00      0.00      0.00
                                0.00      0.00      0.00
                                0.00      0.00      0.00

     3D-RISM stress (kbar)      0.00      0.00      0.00
                                0.00      0.00      0.00
                                0.00      0.00      0.00

     Energy error            =      3.7E-06 Ry
     Gradient error          =      4.2E-04 Ry/Bohr

     bfgs converged in  67 scf cycles and  65 bfgs steps
     (criteria: energy <  1.0E-05 Ry, force <  5.0E-04 Ry/Bohr)

     End of BFGS Geometry Optimization

     Final energy             =  -29711.9062104514 Ry

     File ./tmp/Zn002_4x4x2_primitive_14Avacumn_bridgesite_tilted_parallel_ABN.bfgs deleted, as requested
Begin final coordinates

ATOMIC_POSITIONS (angstrom)
Zn              -0.0000000130        1.5094013740        1.2182902590    0   0   0
Zn               5.2287196980        1.5094013740        1.2182902590    0   0   0
Zn              -0.0021085784        1.5076773687        5.9780550225
Zn               5.2274857396        1.5070042300        5.9779974219
Zn              -1.3071799410        3.7735034240        1.2182902590    0   0   0
Zn               3.9215397700        3.7735034240        1.2182902590    0   0   0
Zn              -1.3089342510        3.7724402195        5.9792438737
Zn               3.9206770141        3.7707654771        5.9728665302
Zn              -2.6143598690        6.0376054730        1.2182902590    0   0   0
Zn               2.6143598420        6.0376054730        1.2182902590    0   0   0
Zn              -2.6154355365        6.0365815894        5.9779870912
Zn               2.6104986407        6.0379059864        5.9758470385
Zn              -3.9215397970        8.3017075230        1.2182902590    0   0   0
Zn               1.3071799140        8.3017075230        1.2182902590    0   0   0
Zn              -3.9227891670        8.3004033459        5.9792490431
Zn               1.3048751808        8.3003754842        5.9793006392
Zn               2.6143598430        1.5094013740        1.2182902590    0   0   0
Zn               7.8430795540        1.5094013740        1.2182902590    0   0   0
Zn               2.6123209766        1.5060367475        5.9784097027
Zn               7.8415989180        1.5082007456        5.9771018113
Zn               1.3071799150        3.7735034240        1.2182902590    0   0   0
Zn               6.5358996260        3.7735034240        1.2182902590    0   0   0
Zn               1.3031432950        3.7722348876        5.9768010395
Zn               6.5356167867        3.7720232685        5.9772853699
Zn              -0.0000000130        6.0376054730        1.2182902590    0   0   0
Zn               5.2287196980        6.0376054730        1.2182902590    0   0   0
Zn              -0.0024878603        6.0365278717        5.9806525309
Zn               5.2291035473        6.0377949026        5.9761069767
Zn              -1.3071799410        8.3017075230        1.2182902590    0   0   0
Zn               3.9215397700        8.3017075230        1.2182902590    0   0   0
Zn              -1.3090084594        8.2997602329        5.9776090094
Zn               3.9200282033        8.3012805068        5.9788067617
Zn               1.3071799410        0.7547006760        3.6548707760    0   0   0
Zn               6.5358996520        0.7547006760        3.6548707760    0   0   0
Zn               1.3003068151        0.7508238926        8.5278998490
Zn               6.5299747617        0.7517278537        8.5281322550
Zn               0.0000000130        3.0188027250        3.6548707760    0   0   0
Zn               5.2287197240        3.0188027250        3.6548707760    0   0   0
Zn              -0.0063908117        3.0160480875        8.5284987860
Zn               5.2229100095        3.0152241692        8.5268350045
Zn              -1.3071799150        5.2829047750        3.6548707760    0   0   0
Zn               3.9215397960        5.2829047750        3.6548707760    0   0   0
Zn              -1.3132219565        5.2799252050        8.5297666688
Zn               3.9153421610        5.2813308863        8.4733382963
Zn              -2.6143598430        7.5470068250        3.6548707760    0   0   0
Zn               2.6143598680        7.5470068250        3.6548707760    0   0   0
Zn              -2.6198643982        7.5441686436        8.5240336303
Zn               2.6075194436        7.5439926016        8.5312006782
Zn               3.9215397970        0.7547006760        3.6548707760    0   0   0
Zn               9.1502595080        0.7547006760        3.6548707760    0   0   0
Zn               3.9152822043        0.7509008664        8.5295767606
Zn               9.1444021325        0.7519676103        8.5231321142
Zn               2.6143598690        3.0188027250        3.6548707760    0   0   0
Zn               7.8430795800        3.0188027250        3.6548707760    0   0   0
Zn               2.6069046699        3.0141759161        8.4914601224
Zn               7.8370562830        3.0157944610        8.5278561802
Zn               1.3071799410        5.2829047750        3.6548707760    0   0   0
Zn               6.5358996520        5.2829047750        3.6548707760    0   0   0
Zn               1.2998657925        5.2799533098        8.5380930510
Zn               6.5308958183        5.2800425960        8.5266737053
[...]
C                1.0077933456        6.0491669333       17.0109992999
C                1.6698777653        5.6627122347       15.8102456935
C                1.3945450238        4.4176238957       15.2055943317
C                2.6112188151        6.5219392791       15.2037945797
C                3.2548176109        6.1490539361       14.0341331441
C                2.0382203893        4.0447355615       14.0352599057
C                2.9812130571        4.9032986756       13.4249666665
N                0.4631929794        6.3713138781       18.0003124567
N                3.6607123771        4.5131505672       12.2917253793
H                4.1292266577        5.2314957462       11.7403354576
H                3.2750663312        3.7509486176       11.7354677047
H                0.6672516649        3.7454824973       15.6703829156
H                2.8304246189        7.4885495948       15.6662329745
H                3.9881219656        6.8217359086       13.5763376623
H                1.8206243586        3.0728860968       13.5796089970
End final coordinates

     Writing all to output data dir ./tmp/Zn002_4x4x2_primitive_14Avacumn_bridgesite_tilted_parallel_ABN.save/ :
     XML data file, charge density, pseudopotentials, collected wavefunctions

     General routines

     Parallel routines

     PAW routines

   This run was terminated on:  14: 1:16   2Feb1998

   JOB DONE.
Note: The following floating-point exceptions are signalling: IEEE_DENORMAL
Note: The following floating-point exceptions are signalling: IEEE_DENORMAL
Note: The following floating-point exceptions are signalling: IEEE_DENORMAL
Note: The following floating-point exceptions are signalling: IEEE_DENORMAL
Note: The following floating-point exceptions are signalling: IEEE_DENORMAL
Note: The following floating-point exceptions are signalling: IEEE_DENORMAL
Note: The following floating-point exceptions are signalling: IEEE_DENORMAL
Note: The following floating-point exceptions are signalling: IEEE_DENORMAL
Note: The following floating-point exceptions are signalling: IEEE_DENORMAL
Note: The following floating-point exceptions are signalling: IEEE_DENORMAL
Note: The following floating-point exceptions are signalling: IEEE_DENORMAL
Note: The following floating-point exceptions are signalling: IEEE_DENORMAL
Note: The following floating-point exceptions are signalling: IEEE_DENORMAL
Note: The following floating-point exceptions are signalling: IEEE_DENORMAL
Note: The following floating-point exceptions are signalling: IEEE_DENORMAL