     Program PWSCF v.7.3.1 starts on  6Apr2025 at 15: 0:35

     Waiting for input...
     Reading input from standard input
Warning: card &CELL ignored
Warning: card   CELL_DOFREE = 'ALL' ignored
Warning: card / ignored

     Current dimensions of program PWSCF are:
     Max number of different atomic species (ntypx) = 10
     Max number of k-points (npk) =  40000
     Max angular momentum in pseudopotentials (lmaxx) =  4
     file C.pbe-n-kjpaw_psl.1.0.0.UPF: wavefunction(s)  2S 2P renormalized

     R & G space division:  proc/nbgrp/npool/nimage =      26
     Subspace diagonalization in iterative solution of the eigenvalue problem:
     one sub-group per band group will be used

     Using Slab Decomposition

     bravais-lattice index     =            0
     lattice parameter (alat)  =      20.9009  a.u.
     unit-cell volume          =   16846.7507 (a.u.)^3
     number of atoms/cell      =           63
     number of atomic types    =            4
     number of electrons       =      1004.00
     number of Kohn-Sham states=          602
     kinetic-energy cutoff     =      40.0000  Ry
     charge density cutoff     =     280.0000  Ry
     scf convergence threshold =      1.0E-06
     mixing beta               =       0.4000
     number of iterations used =            8  plain     mixing
     energy convergence thresh.=      1.0E-05
     force convergence thresh. =      5.0E-04
     Exchange-correlation= PBE
                           (   1   4   3   4   0   0   0)
     nstep                     =          100

     celldm(1)=  20.900943  celldm(2)=   0.000000  celldm(3)=   0.000000
     celldm(4)=   0.000000  celldm(5)=   0.000000  celldm(6)=   0.000000

     crystal axes: (cart. coord. in units of alat)
               a(1) = (   1.000000   0.000000   0.000000 )
               a(2) = (  -0.223489   0.918700   0.000000 )
               a(3) = (  -4.200249  -1.021781   2.008375 )

     reciprocal axes: (cart. coord. in units 2 pi/alat)
               b(1) = (  1.000000  0.243267  2.215131 )
               b(2) = ( -0.000000  1.088495  0.553783 )
               b(3) = (  0.000000 -0.000000  0.497915 )

     PseudoPot. # 1 for Zn read from file:
     /home/yongsang/Research/PSID_server_room/qe/[00]QE/qepseudo/SSSP_1.3.0_PBE_efficiency/Zn_pbe_v1.uspp.F.UPF
     MD5 check sum: df62231357ef9e81f77b2b3087fa5675
     Pseudo is Ultrasoft, Zval = 20.0
     Generated by new atomic code, or converted to UPF format
     Using radial grid of  943 points,  6 beta functions with:
                l(1) =   0
                l(2) =   0
                l(3) =   1
                l(4) =   1
                l(5) =   2
                l(6) =   2
     Q(r) pseudized with  8 coefficients,  rinner =    1.100   1.100   1.100
                                                       1.100   1.100

     PseudoPot. # 2 for N  read from file:
     /home/yongsang/Research/PSID_server_room/qe/[00]QE/qepseudo/SSSP_1.3.0_PBE_efficiency/N.pbe-n-radius_5.UPF
     MD5 check sum: 16739722b17309cd8fe442a2ace49922
     Pseudo is Ultrasoft + core correction, Zval =  5.0
     Generated using "atomic" code by A. Dal Corso  v.5.1
     Using radial grid of 1085 points,  4 beta functions with:
                l(1) =   0
                l(2) =   0
                l(3) =   1
                l(4) =   1
     Q(r) pseudized with 0 coefficients

     PseudoPot. # 3 for C  read from file:
     /home/yongsang/Research/PSID_server_room/qe/[00]QE/qepseudo/SSSP_1.3.0_PBE_efficiency/C.pbe-n-kjpaw_psl.1.0.0.UPF
     MD5 check sum: 5d2aebdfa2cae82b50a7e79e9516da0f
     Pseudo is Projector augmented-wave + core cor, Zval =  4.0
     Generated using "atomic" code by A. Dal Corso  v.5.1
     Shape of augmentation charge: PSQ
     Using radial grid of 1073 points,  4 beta functions with:
                l(1) =   0
                l(2) =   0
                l(3) =   1
                l(4) =   1
     Q(r) pseudized with 0 coefficients

     PseudoPot. # 4 for H  read from file:
     /home/yongsang/Research/PSID_server_room/qe/[00]QE/qepseudo/SSSP_1.3.0_PBE_efficiency/H.pbe-rrkjus_psl.1.0.0.UPF
     MD5 check sum: f52b6d4d1c606e5624b1dc7b2218f220
     Pseudo is Ultrasoft, Zval =  1.0
     Generated using "atomic" code by A. Dal Corso  v.5.1
     Using radial grid of  929 points,  2 beta functions with:
                l(1) =   0
                l(2) =   0
     Q(r) pseudized with 0 coefficients

     atomic species   valence    mass     pseudopotential
     Zn               20.00    65.38000     Zn( 1.00)
     N                 5.00    14.00674     N ( 1.00)
     C                 4.00    12.01070     C ( 1.00)
     H                 1.00     1.00794     H ( 1.00)

     No symmetry found

                                    s                        frac. trans.

      isym =  1     identity

 cryst.   s( 1) = (     1          0          0      )
                  (     0          1          0      )
                  (     0          0          1      )

 cart.    s( 1) = (  1.0000000  0.0000000  0.0000000 )
                  (  0.0000000  1.0000000  0.0000000 )
                  (  0.0000000  0.0000000  1.0000000 )

   Cartesian axes

     site n.     atom                  positions (alat units)
         1        Zn     tau(   1) = (  -0.0970639   0.0980210   0.1082940  )
         2        Zn     tau(   2) = (  -0.2088085   0.5573710   0.1082940  )
         3        Zn     tau(   3) = (  -0.3800989   0.0283364   0.3953317  )
         4        Zn     tau(   4) = (  -0.4918957   0.4875659   0.3957572  )
         5        Zn     tau(   5) = (  -0.7356613  -0.0630833   0.5265919  )
         6        Zn     tau(   6) = (  -0.8479391   0.3948485   0.5223629  )
         7        Zn     tau(   7) = (  -0.1529361   0.3276960   0.1082940  )
         8        Zn     tau(   8) = (  -0.2646808   0.7870460   0.1082940  )
         9        Zn     tau(   9) = (  -0.4358435   0.2576889   0.3954970  )
        10        Zn     tau(  10) = (  -0.5479037   0.7174905   0.3952582  )
        11        Zn     tau(  11) = (  -0.7917815   0.1661747   0.5263964  )
        12        Zn     tau(  12) = (  -0.9035419   0.6257882   0.5248724  )
        13        Zn     tau(  13) = (   0.4029362   0.0980210   0.1082940  )
        14        Zn     tau(  14) = (   0.2911915   0.5573710   0.1082940  )
        15        Zn     tau(  15) = (   0.0386693   0.0098553   0.3131957  )
        16        Zn     tau(  16) = (  -0.0732122   0.4694198   0.3128349  )
        17        Zn     tau(  17) = (  -0.1858512  -0.0444284   0.5142826  )
        18        Zn     tau(  18) = (  -0.2979371   0.4148495   0.5145101  )
        19        Zn     tau(  19) = (   0.3470638   0.3276960   0.1082940  )
        20        Zn     tau(  20) = (   0.2353192   0.7870460   0.1082940  )
        21        Zn     tau(  21) = (  -0.0168627   0.2396299   0.3129606  )
        22        Zn     tau(  22) = (  -0.1290562   0.6988502   0.3136095  )
        23        Zn     tau(  23) = (  -0.2422699   0.1850649   0.5148239  )
        24        Zn     tau(  24) = (  -0.3532645   0.6447946   0.5139379  )
        25        Zn     tau(  25) = (   0.1529361   0.0372043   0.0773528  )
        26        Zn     tau(  26) = (   0.0411915   0.4965543   0.0773528  )
        27        Zn     tau(  27) = (  -0.2009760  -0.0490705   0.2604305  )
        28        Zn     tau(  28) = (  -0.3129226   0.4100190   0.2607164  )
        29        Zn     tau(  29) = (  -0.5455832  -0.1345187   0.3982128  )
        30        Zn     tau(  30) = (  -0.6565147   0.3243575   0.3972420  )
        31        Zn     tau(  31) = (   0.0970639   0.2668793   0.0773528  )
        32        Zn     tau(  32) = (  -0.0146808   0.7262293   0.0773528  )
        33        Zn     tau(  33) = (  -0.2571233   0.1804221   0.2604197  )
        34        Zn     tau(  34) = (  -0.3685649   0.6398757   0.2606442  )
        35        Zn     tau(  35) = (  -0.6013876   0.0947743   0.3979131  )
        36        Zn     tau(  36) = (  -0.7126225   0.5545739   0.3983746  )
        37        Zn     tau(  37) = (   0.6529362   0.0372043   0.0773528  )
        38        Zn     tau(  38) = (   0.5411915   0.4965543   0.0773528  )
        39        Zn     tau(  39) = (   0.2723547  -0.0561635   0.2642542  )
        40        Zn     tau(  40) = (   0.1613687   0.4035805   0.2635479  )
        41        Zn     tau(  41) = (   0.0388699  -0.1099737   0.5261848  )
        42        Zn     tau(  42) = (  -0.0738581   0.3488542   0.5246947  )
        43        Zn     tau(  43) = (   0.5970639   0.2668793   0.0773528  )
        44        Zn     tau(  44) = (   0.4853193   0.7262293   0.0773528  )
        45        Zn     tau(  45) = (   0.2167548   0.1734943   0.2642589  )
        46        Zn     tau(  46) = (   0.1050078   0.6330780   0.2644624  )
        47        Zn     tau(  47) = (  -0.0173170   0.1196566   0.5261398  )
        48        Zn     tau(  48) = (  -0.1285982   0.5787721   0.5273614  )
        49        C      tau(  49) = (  -1.1890732   0.3378168   1.2249166  )
        50        C      tau(  50) = (  -1.1152090   0.3636738   1.1226278  )
        51        C      tau(  51) = (  -1.1660246   0.3725085   1.0060672  )
        52        C      tau(  52) = (  -0.9898081   0.3815880   1.1362353  )
        53        C      tau(  53) = (  -1.0943968   0.3996871   0.9068600  )
        54        C      tau(  54) = (  -0.9180469   0.4086634   1.0370785  )
        55        C      tau(  55) = (  -0.9690462   0.4193767   0.9205835  )
        56        N      tau(  56) = (  -1.2497981   0.3173117   1.3088716  )
        57        N      tau(  57) = (  -0.8978757   0.4447402   0.8216562  )
        58        H      tau(  58) = (  -0.8146441   0.4799386   0.8362288  )
        59        H      tau(  59) = (  -0.9386229   0.4740236   0.7444866  )
        60        H      tau(  60) = (  -0.9493520   0.3745793   1.2258263  )
        61        H      tau(  61) = (  -1.2628623   0.3584050   0.9944903  )
        62        H      tau(  62) = (  -0.8210782   0.4224775   1.0491317  )
        63        H      tau(  63) = (  -1.1347616   0.4065098   0.8169580  )

     DFT-D3 Dispersion Correction (3-body terms):
       Reference C6 values for interpolation:

         atom   Coordination number   C6
         H          0.912             6.05
         H          0.000            15.18
         C          0.000            98.23
         C          0.987            86.49
         C          1.998            58.72
         C          2.999            51.56
         C          3.984            36.41
         N          0.000            50.54
         N          0.994            44.25
         N          2.014            39.35
         N          2.990            31.16
         Zn         0.000           681.04
         Zn         1.942           306.91

       Values used:

         atom   Coordination number  R0_AB[au]  C6      C8
         Zn         6.245            3.053    306.91  23930.67
         Zn         6.243            3.053    306.91  23930.67
         Zn         6.996            3.053    306.91  23930.67
         Zn         6.989            3.053    306.91  23930.67
[...]
     atom   18 type  1   force =    -0.00006234   -0.00000367   -0.00003029
     atom   19 type  1   force =     0.00000000    0.00000000    0.00000000
     atom   20 type  1   force =     0.00000000   -0.00000000    0.00000000
     atom   21 type  1   force =    -0.00004133    0.00001209   -0.00000892
     atom   22 type  1   force =    -0.00004138   -0.00002651    0.00000596
     atom   23 type  1   force =    -0.00005966   -0.00001046   -0.00001489
     atom   24 type  1   force =    -0.00006103   -0.00001786   -0.00001378
     atom   25 type  1   force =     0.00000000    0.00000000   -0.00000000
     atom   26 type  1   force =     0.00000000   -0.00000000    0.00000000
     atom   27 type  1   force =    -0.00006685   -0.00002295    0.00006234
     atom   28 type  1   force =    -0.00006518   -0.00001586    0.00002843
     atom   29 type  1   force =     0.00008716    0.00001412    0.00000266
     atom   30 type  1   force =     0.00009874    0.00002015   -0.00003250
     atom   31 type  1   force =     0.00000000    0.00000000    0.00000000
     atom   32 type  1   force =     0.00000000   -0.00000000   -0.00000000
     atom   33 type  1   force =    -0.00006172    0.00000853    0.00004068
     atom   34 type  1   force =    -0.00006720   -0.00004807    0.00005031
     atom   35 type  1   force =     0.00008666    0.00002112   -0.00000602
     atom   36 type  1   force =     0.00009397    0.00001423   -0.00002402
     atom   37 type  1   force =    -0.00000000    0.00000000    0.00000000
     atom   38 type  1   force =    -0.00000000   -0.00000000    0.00000000
     atom   39 type  1   force =     0.00005930    0.00001515    0.00000498
     atom   40 type  1   force =     0.00007019    0.00001575   -0.00002436
     atom   41 type  1   force =    -0.00004889   -0.00001620    0.00001550
     atom   42 type  1   force =    -0.00005635   -0.00000815   -0.00000040
     atom   43 type  1   force =    -0.00000000    0.00000000    0.00000000
     atom   44 type  1   force =    -0.00000000   -0.00000000    0.00000000
     atom   45 type  1   force =     0.00006587    0.00003850   -0.00000638
     atom   46 type  1   force =     0.00006590   -0.00001357   -0.00001444
     atom   47 type  1   force =    -0.00005704   -0.00001845    0.00001027
     atom   48 type  1   force =    -0.00006437   -0.00000281   -0.00001199
     atom   49 type  3   force =    -0.00001352   -0.00000351    0.00001877
     atom   50 type  3   force =     0.00000301    0.00000150   -0.00000700
     atom   51 type  3   force =     0.00000241    0.00000012   -0.00001301
     atom   52 type  3   force =     0.00000212   -0.00000096   -0.00000313
     atom   53 type  3   force =    -0.00000235   -0.00000173   -0.00000319
     atom   54 type  3   force =     0.00000405    0.00000034   -0.00000734
     atom   55 type  3   force =    -0.00000258   -0.00000431    0.00000074
     atom   56 type  2   force =    -0.00001100   -0.00000137    0.00001882
     atom   57 type  2   force =     0.00000061    0.00000641    0.00000268
     atom   58 type  4   force =     0.00000099    0.00000083    0.00000005
     atom   59 type  4   force =     0.00000007    0.00000051    0.00000096
     atom   60 type  4   force =     0.00000100   -0.00000024    0.00000174
     atom   61 type  4   force =    -0.00000011    0.00000006   -0.00000239
     atom   62 type  4   force =     0.00000012    0.00000034   -0.00000090
     atom   63 type  4   force =    -0.00000041   -0.00000030    0.00000129

     DFT-D3 dispersion contribution to forces:
     atom    1 type  1   force =    -0.00078376   -0.00018637    0.00277665
     atom    2 type  1   force =    -0.00078180   -0.00020410    0.00277148
     atom    3 type  1   force =    -0.00116644   -0.00030373   -0.00272437
     atom    4 type  1   force =    -0.00115738   -0.00030704   -0.00270446
     atom    5 type  1   force =     0.00069859    0.00042242   -0.00178099
     atom    6 type  1   force =     0.00064690    0.00078035   -0.00061561
     atom    7 type  1   force =    -0.00077467   -0.00019556    0.00278287
     atom    8 type  1   force =    -0.00079198   -0.00019373    0.00275825
     atom    9 type  1   force =    -0.00113862   -0.00029026   -0.00270755
     atom   10 type  1   force =    -0.00116275   -0.00031766   -0.00271530
     atom   11 type  1   force =     0.00052929    0.00085486   -0.00151807
     atom   12 type  1   force =     0.00067983   -0.00016011   -0.00072361
     atom   13 type  1   force =     0.00059350    0.00018285    0.00294356
     atom   14 type  1   force =     0.00058432    0.00015530    0.00296445
     atom   15 type  1   force =    -0.00015960   -0.00008836   -0.00073587
     atom   16 type  1   force =    -0.00027998   -0.00007398   -0.00073292
     atom   17 type  1   force =    -0.00016120   -0.00002352   -0.00261162
     atom   18 type  1   force =     0.00019666   -0.00004462   -0.00202716
     atom   19 type  1   force =     0.00057608    0.00018130    0.00296544
     atom   20 type  1   force =     0.00059862    0.00016789    0.00294044
     atom   21 type  1   force =    -0.00025057   -0.00015827   -0.00076121
     atom   22 type  1   force =    -0.00019510   -0.00009249   -0.00078000
     atom   23 type  1   force =    -0.00001948    0.00015755   -0.00231482
     atom   24 type  1   force =    -0.00009156   -0.00013711   -0.00250778
     atom   25 type  1   force =     0.00059061    0.00015784    0.00278649
     atom   26 type  1   force =     0.00059052    0.00014617    0.00280702
     atom   27 type  1   force =     0.00075169    0.00021395    0.00189249
     atom   28 type  1   force =     0.00074847    0.00020146    0.00189716
     atom   29 type  1   force =     0.00078270    0.00016908   -0.00200335
     atom   30 type  1   force =     0.00075182    0.00023019   -0.00194613
     atom   31 type  1   force =     0.00058513    0.00016356    0.00281714
     atom   32 type  1   force =     0.00059236    0.00015481    0.00277393
     atom   33 type  1   force =     0.00075920    0.00022898    0.00190344
     atom   34 type  1   force =     0.00073484    0.00020370    0.00189432
     atom   35 type  1   force =     0.00078369    0.00021497   -0.00204502
     atom   36 type  1   force =     0.00070545    0.00014955   -0.00180423
     atom   37 type  1   force =     0.00030816    0.00008302    0.00261657
     atom   38 type  1   force =     0.00030391    0.00008167    0.00263319
     atom   39 type  1   force =    -0.00111702   -0.00030836    0.00161384
     atom   40 type  1   force =    -0.00105089   -0.00029917    0.00166123
     atom   41 type  1   force =    -0.00034108   -0.00045627   -0.00436013
     atom   42 type  1   force =    -0.00002071    0.00004076   -0.00301184
     atom   43 type  1   force =     0.00030358    0.00008592    0.00262616
     atom   44 type  1   force =     0.00030818    0.00007965    0.00261044
     atom   45 type  1   force =    -0.00110030   -0.00036537    0.00157683
     atom   46 type  1   force =    -0.00112315   -0.00031354    0.00166114
     atom   47 type  1   force =    -0.00038097   -0.00011226   -0.00404438
     atom   48 type  1   force =     0.00010494   -0.00090191   -0.00328720
     atom   49 type  3   force =    -0.00008988   -0.00002071    0.00001178
     atom   50 type  3   force =    -0.00004275    0.00001050   -0.00020662
     atom   51 type  3   force =    -0.00010856   -0.00001594   -0.00035793
     atom   52 type  3   force =     0.00016719    0.00000455    0.00012531
     atom   53 type  3   force =    -0.00030041   -0.00005289   -0.00109777
     atom   54 type  3   force =     0.00004087   -0.00003558   -0.00005434
     atom   55 type  3   force =     0.00004449   -0.00001208   -0.00095507
     atom   56 type  2   force =     0.00022434    0.00008418   -0.00017801
     atom   57 type  2   force =    -0.00017396   -0.00004601   -0.00153344
     atom   58 type  4   force =    -0.00017718   -0.00000739   -0.00092630
     atom   59 type  4   force =    -0.00024872    0.00010143   -0.00154566
     atom   60 type  4   force =    -0.00003806    0.00001161   -0.00002711
     atom   61 type  4   force =    -0.00002562    0.00000287   -0.00013215
     atom   62 type  4   force =    -0.00000253   -0.00000746   -0.00002432
     atom   63 type  4   force =    -0.00002928    0.00000890   -0.00130926

     Total force =     0.001823     Total SCF correction =     0.000375

     DFT-D3 dispersion Force =     0.017812
     SCF correction compared to forces is large: reduce conv_thr to get better values

     Computing stress (Cartesian axis) and pressure

     negative rho (up, down):  3.838E-03 0.000E+00
          total   stress  (Ry/bohr**3)                   (kbar)     P=      -10.89
  -0.00012158  -0.00000453   0.00000265          -17.88       -0.67        0.39
  -0.00000453  -0.00009355   0.00000178           -0.67      -13.76        0.26
   0.00000265   0.00000178  -0.00000703            0.39        0.26       -1.03

     kinetic stress (kbar)  11681.55     -8.89      8.60
                               -8.89  11727.98     14.35
                                8.60     14.35  11720.80

     local   stress (kbar)-823554.54   3894.17    904.23
                             3894.17-837563.97    561.04
                              904.23    561.04 829200.62

     nonloc. stress (kbar)  -1081.82     -2.41     -2.76
                               -2.41  -1073.27     -1.55
                               -2.76     -1.55  -1107.15

     hartree stress (kbar) 436490.67  -1821.91   -359.28
                            -1821.91 443088.03   -219.61
                             -359.28   -219.61-383162.00

     exc-cor stress (kbar)  -5697.13      0.11     -0.68
                                0.11  -5698.28     -0.72
                               -0.68     -0.72  -5702.57

     corecor stress (kbar)    -75.43     -0.18      0.16
                               -0.18    -74.49      0.19
                                0.16      0.19    -75.56

     ewald   stress (kbar) 382226.31  -2061.80   -549.76
                            -2061.80 389588.36   -353.42
                             -549.76   -353.42-450870.98

     hubbard stress (kbar)      0.00      0.00      0.00
                                0.00      0.00      0.00
                                0.00      0.00      0.00

     DFT-D   stress (kbar)     -7.50      0.24     -0.12
                                0.24     -8.12     -0.02
                               -0.12     -0.02     -4.20

     XDM     stress (kbar)      0.00      0.00      0.00
                                0.00      0.00      0.00
                                0.00      0.00      0.00

     dft-nl  stress (kbar)      0.00      0.00      0.00
                                0.00      0.00      0.00
                                0.00      0.00      0.00

     TS-vdW  stress (kbar)      0.00      0.00      0.00
                                0.00      0.00      0.00
                                0.00      0.00      0.00

     MDB     stress (kbar)      0.00      0.00      0.00
                                0.00      0.00      0.00
                                0.00      0.00      0.00

     3D-RISM stress (kbar)      0.00      0.00      0.00
                                0.00      0.00      0.00
                                0.00      0.00      0.00

     Energy error            =      8.5E-06 Ry
     Gradient error          =      4.1E-04 Ry/Bohr

     bfgs converged in  11 scf cycles and  10 bfgs steps
     (criteria: energy <  1.0E-05 Ry, force <  5.0E-04 Ry/Bohr)

     End of BFGS Geometry Optimization

     Final energy             =  -22331.0414024972 Ry

     File ./tmp/05_Zn101_ABN_topsite_edge_on_tilted.bfgs deleted, as requested
Begin final coordinates

ATOMIC_POSITIONS (angstrom)
Zn              -1.0735560000        1.0841420000        1.1977640000    0   0   0
Zn              -2.3094850000        6.1646920000        1.1977640000    0   0   0
Zn              -4.2089141709        0.3109664342        4.3691917204
Zn              -5.4417855539        5.3934354417        4.3716825045
Zn              -8.1363352674       -0.6955552791        5.8234753829
Zn              -9.3802732131        4.3682978700        5.7808010903
Zn              -1.6915200000        3.6244170000        1.1977640000    0   0   0
Zn              -2.9274500000        8.7049670000        1.1977640000    0   0   0
Zn              -4.8244539417        2.8530336700        4.3711475549
Zn              -6.0603967884        7.9322190055        4.3672660517
Zn              -8.7558581428        1.8398586205        5.8237223262
Zn              -9.9932513764        6.9243923950        5.8065227443
Zn               4.4565960000        1.0841420000        1.1977640000    0   0   0
Zn               3.2206660000        6.1646920000        1.1977640000    0   0   0
Zn               0.4252924270        0.1080037286        3.4658496924
Zn              -0.8114431628        5.1908959235        3.4623518458
Zn              -2.0587646929       -0.4920907878        5.6875218992
Zn              -3.2952399549        4.5890626938        5.6927446673
Zn               3.8386310000        3.6244170000        1.1977640000    0   0   0
Zn               2.6027020000        8.7049670000        1.1977640000    0   0   0
Zn              -0.1918962428        2.6478630027        3.4589907333
Zn              -1.4275499520        7.7273777244        3.4710051325
Zn              -2.6799614711        2.0452199879        5.6925668037
Zn              -3.9084584290        7.1284464694        5.6859747542
Zn               1.6915200000        0.4114910000        0.8555450000    0   0   0
Zn               0.4555910000        5.4920410000        0.8555450000    0   0   0
Zn              -2.2266510495       -0.5439315586        2.8795175945
Zn              -3.4634862413        4.5363585158        2.8793870595
Zn              -6.0329418616       -1.4892669981        4.4049578238
Zn              -7.2668236482        3.5896119758        4.3946316578
Zn               1.0735560000        2.9517660000        0.8555450000    0   0   0
Zn              -0.1623740000        8.0323160000        0.8555450000    0   0   0
Zn              -2.8440970331        1.9967473262        2.8818170483
Zn              -4.0815959503        7.0761371583        2.8776512119
Zn              -6.6514744270        1.0517637394        4.4024775110
Zn              -7.8857506942        6.1304540408        4.4058224527
Zn               7.2216720000        0.4114910000        0.8555450000    0   0   0
Zn               5.9857420000        5.4920410000        0.8555450000    0   0   0
Zn               3.0118310380       -0.6197120306        2.9251030317
Zn               1.7839413533        4.4634095576        2.9121299122
Zn               0.4290385016       -1.2167627982        5.8210940269
Zn              -0.8141676748        3.8589109095        5.8016448470
Zn               6.6037070000        2.9517660000        0.8555450000    0   0   0
Zn               5.3677780000        8.0323160000        0.8555450000    0   0   0
Zn               2.3952229054        1.9190868059        2.9219934723
Zn               1.1589211752        7.0022872483        2.9250515631
Zn              -0.1902030173        1.3263141251        5.8236403478
Zn              -1.4214089922        6.3991405915        5.8349092736
C              -13.1529950743        3.7320099880       13.5404666139
C              -12.3352252913        4.0197499955       12.4110033885
C              -12.8973637682        4.1199097668       11.1224266055
C              -10.9487051372        4.2204681480       12.5634043693
C              -12.1057773974        4.4237905153       10.0261397535
C              -10.1555805429        4.5235775315       11.4683603720
C              -10.7190757460        4.6432877580       10.1798466774
N              -13.8234626211        3.5043614040       14.4696291581
N               -9.9316992966        4.9281768762        9.0881562314
H               -9.0088093245        5.3137625474        9.2469451809
H              -10.3831732245        5.2458918099        8.2335924664
H              -10.5008386390        4.1424060415       13.5541626670
H              -13.9686314827        3.9635182996       10.9944379010
H               -9.0831823894        4.6774271436       11.6040160246
H              -12.5547300353        4.5002647388        9.0327660470
End final coordinates

     Writing all to output data dir ./tmp/05_Zn101_ABN_topsite_edge_on_tilted.save/ :
     XML data file, charge density, pseudopotentials, collected wavefunctions

     General routines

     Parallel routines

     PAW routines

   This run was terminated on:  19:22: 5   6Apr2025

   JOB DONE.