     Program PWSCF v.7.3.1 starts on 17Mar2025 at  8:20:27

     Waiting for input...
     Reading input from standard input

     Current dimensions of program PWSCF are:
     Max number of different atomic species (ntypx) = 10
     Max number of k-points (npk) =  40000
     Max angular momentum in pseudopotentials (lmaxx) =  4
     file C.pbe-n-kjpaw_psl.1.0.0.UPF: wavefunction(s)  2S 2P renormalized

     R & G space division:  proc/nbgrp/npool/nimage =      30
     Subspace diagonalization in iterative solution of the eigenvalue problem:
     one sub-group per band group will be used

     Using Slab Decomposition

     bravais-lattice index     =            0
     lattice parameter (alat)  =      18.4179  a.u.
     unit-cell volume          =    7929.1084 (a.u.)^3
     number of atoms/cell      =           47
     number of atomic types    =            4
     number of electrons       =       684.00
     number of Kohn-Sham states=          410
     kinetic-energy cutoff     =      50.0000  Ry
     charge density cutoff     =     200.0000  Ry
     scf convergence threshold =      7.3E-07
     mixing beta               =       0.7000
     number of iterations used =            8  plain     mixing
     Exchange-correlation= PBE
                           (   1   4   3   4   0   0   0)

     celldm(1)=  18.417879  celldm(2)=   0.000000  celldm(3)=   0.000000
     celldm(4)=   0.000000  celldm(5)=   0.000000  celldm(6)=   0.000000

     crystal axes: (cart. coord. in units of alat)
               a(1) = (   1.000000   0.000000   0.000000 )
               a(2) = (   0.000000   0.536481   0.000000 )
               a(3) = (   0.000000  -1.365810   2.365652 )

     reciprocal axes: (cart. coord. in units 2 pi/alat)
               b(1) = (  1.000000  0.000000 -0.000000 )
               b(2) = ( -0.000000  1.863998  1.076180 )
               b(3) = (  0.000000  0.000000  0.422716 )

     PseudoPot. # 1 for Zn read from file:
     /home/ys/qepseudo/SSSP_1.3.0_PBE_efficiency/Zn_pbe_v1.uspp.F.UPF
     MD5 check sum: df62231357ef9e81f77b2b3087fa5675
     Pseudo is Ultrasoft, Zval = 20.0
     Generated by new atomic code, or converted to UPF format
     Using radial grid of  943 points,  6 beta functions with:
                l(1) =   0
                l(2) =   0
                l(3) =   1
                l(4) =   1
                l(5) =   2
                l(6) =   2
     Q(r) pseudized with  8 coefficients,  rinner =    1.100   1.100   1.100
                                                       1.100   1.100

     PseudoPot. # 2 for C  read from file:
     /home/ys/qepseudo/SSSP_1.3.0_PBE_efficiency/C.pbe-n-kjpaw_psl.1.0.0.UPF
     MD5 check sum: 5d2aebdfa2cae82b50a7e79e9516da0f
     Pseudo is Projector augmented-wave + core cor, Zval =  4.0
     Generated using "atomic" code by A. Dal Corso  v.5.1
     Shape of augmentation charge: PSQ
     Using radial grid of 1073 points,  4 beta functions with:
                l(1) =   0
                l(2) =   0
                l(3) =   1
                l(4) =   1
     Q(r) pseudized with 0 coefficients

     PseudoPot. # 3 for N  read from file:
     /home/ys/qepseudo/SSSP_1.3.0_PBE_efficiency/N.pbe-n-radius_5.UPF
     MD5 check sum: 16739722b17309cd8fe442a2ace49922
     Pseudo is Ultrasoft + core correction, Zval =  5.0
     Generated using "atomic" code by A. Dal Corso  v.5.1
     Using radial grid of 1085 points,  4 beta functions with:
                l(1) =   0
                l(2) =   0
                l(3) =   1
                l(4) =   1
     Q(r) pseudized with 0 coefficients

     PseudoPot. # 4 for H  read from file:
     /home/ys/qepseudo/SSSP_1.3.0_PBE_efficiency/H.pbe-rrkjus_psl.1.0.0.UPF
     MD5 check sum: f52b6d4d1c606e5624b1dc7b2218f220
     Pseudo is Ultrasoft, Zval =  1.0
     Generated using "atomic" code by A. Dal Corso  v.5.1
     Using radial grid of  929 points,  2 beta functions with:
                l(1) =   0
                l(2) =   0
     Q(r) pseudized with 0 coefficients

     atomic species   valence    mass     pseudopotential
     Zn               20.00    65.38000     Zn( 1.00)
     C                 4.00    12.01070     C ( 1.00)
     N                 5.00    14.00670     N ( 1.00)
     H                 1.00     1.00800     H ( 1.00)

     No symmetry found

                                    s                        frac. trans.

      isym =  1     identity

 cryst.   s( 1) = (     1          0          0      )
                  (     0          1          0      )
                  (     0          0          1      )

 cart.    s( 1) = (  1.0000000  0.0000000  0.0000000 )
                  (  0.0000000  1.0000000 -0.0000000 )
                  (  0.0000000  0.0000000  1.0000000 )

   Cartesian axes

     site n.     atom                  positions (alat units)
         1        Zn     tau(   1) = (   0.1250000   0.1341203   0.0774344  )
         2        Zn     tau(   2) = (   0.1250000   0.0000000   0.3097376  )
         3        Zn     tau(   3) = (   0.1244866  -0.1345919   0.5819407  )
         4        Zn     tau(   4) = (   0.1249839  -0.2690541   0.8543996  )
         5        Zn     tau(   5) = (   0.1250000   0.4023610   0.0774344  )
         6        Zn     tau(   6) = (   0.1250000   0.2682407   0.3097376  )
         7        Zn     tau(   7) = (   0.1245579   0.1335617   0.5820378  )
         8        Zn     tau(   8) = (   0.1250503  -0.0007660   0.8562048  )
         9        Zn     tau(   9) = (   0.6250000   0.1341203   0.0774344  )
        10        Zn     tau(  10) = (   0.6250000   0.0000000   0.3097376  )
        11        Zn     tau(  11) = (   0.6249199  -0.1346806   0.5820563  )
        12        Zn     tau(  12) = (   0.6254558  -0.2690971   0.8553277  )
        13        Zn     tau(  13) = (   0.6250000   0.4023610   0.0774344  )
        14        Zn     tau(  14) = (   0.6250000   0.2682407   0.3097376  )
        15        Zn     tau(  15) = (   0.6249064   0.1336029   0.5819359  )
        16        Zn     tau(  16) = (   0.6254362  -0.0006932   0.8545443  )
        17        Zn     tau(  17) = (   0.3750000  -0.0000000   0.1548688  )
        18        Zn     tau(  18) = (   0.3750000  -0.1341203   0.3871721  )
        19        Zn     tau(  19) = (   0.3745119  -0.2690064   0.6225663  )
        20        Zn     tau(  20) = (   0.3750149  -0.4031316   0.8696004  )
        21        Zn     tau(  21) = (   0.3750000   0.2682407   0.1548688  )
        22        Zn     tau(  22) = (   0.3750000   0.1341203   0.3871721  )
        23        Zn     tau(  23) = (   0.3745072  -0.0001873   0.6227095  )
        24        Zn     tau(  24) = (   0.3753923  -0.1349622   0.8643211  )
        25        Zn     tau(  25) = (   0.8750000  -0.0000000   0.1548688  )
        26        Zn     tau(  26) = (   0.8750000  -0.1341203   0.3871721  )
        27        Zn     tau(  27) = (   0.8748758  -0.2686777   0.6239247  )
        28        Zn     tau(  28) = (   0.8753102  -0.4031240   0.8705349  )
        29        Zn     tau(  29) = (   0.8750000   0.2682407   0.1548688  )
        30        Zn     tau(  30) = (   0.8750000   0.1341203   0.3871721  )
        31        Zn     tau(  31) = (   0.8747709  -0.0004567   0.6238560  )
        32        Zn     tau(  32) = (   0.8754110  -0.1348219   0.8707545  )
        33        C      tau(  33) = (   0.3767653  -0.1607026   1.8035037  )
        34        C      tau(  34) = (   0.3734012  -0.1509147   1.6575738  )
        35        C      tau(  35) = (   0.4581057  -0.0565300   1.5877348  )
        36        C      tau(  36) = (   0.2844127  -0.2353791   1.5807487  )
        37        C      tau(  37) = (   0.2793969  -0.2253882   1.4389576  )
        38        C      tau(  38) = (   0.4535513  -0.0471241   1.4457474  )
        39        C      tau(  39) = (   0.3638874  -0.1311708   1.3684691  )
        40        N      tau(  40) = (   0.3794585  -0.1690665   1.9236581  )
        41        N      tau(  41) = (   0.3551945  -0.1173825   1.2280180  )
        42        H      tau(  42) = (   0.3090338  -0.1938781   1.1734683  )
        43        H      tau(  43) = (   0.4345070  -0.0713952   1.1775837  )
        44        H      tau(  44) = (   0.5273586   0.0095704   1.6463281  )
        45        H      tau(  45) = (   0.2193122  -0.3095765   1.6341920  )
        46        H      tau(  46) = (   0.2101083  -0.2919367   1.3806347  )
        47        H      tau(  47) = (   0.5191866   0.0269831   1.3925372  )

   Crystallographic axes

     site n.     atom                  positions (cryst. coord.)
         1        Zn     tau(   1) = (  0.1250000  0.3333333  0.0327328  )
         2        Zn     tau(   2) = (  0.1250000  0.3333333  0.1309312  )
         3        Zn     tau(   3) = (  0.1244866  0.3753937  0.2459959  )
         4        Zn     tau(   4) = (  0.1249839  0.4179712  0.3611687  )
         5        Zn     tau(   5) = (  0.1250000  0.8333333  0.0327328  )
         6        Zn     tau(   6) = (  0.1250000  0.8333333  0.1309312  )
         7        Zn     tau(   7) = (  0.1245579  0.8753359  0.2460369  )
         8        Zn     tau(   8) = (  0.1250503  0.9200023  0.3619318  )
         9        Zn     tau(   9) = (  0.6250000  0.3333333  0.0327328  )
        10        Zn     tau(  10) = (  0.6250000  0.3333333  0.1309312  )
        11        Zn     tau(  11) = (  0.6249199  0.3753527  0.2460447  )
        12        Zn     tau(  12) = (  0.6254558  0.4188898  0.3615611  )
        13        Zn     tau(  13) = (  0.6250000  0.8333333  0.0327328  )
        14        Zn     tau(  14) = (  0.6250000  0.8333333  0.1309312  )
        15        Zn     tau(  15) = (  0.6249064  0.8753030  0.2459939  )
        16        Zn     tau(  16) = (  0.6254362  0.9183509  0.3612299  )
        17        Zn     tau(  17) = (  0.3750000  0.1666667  0.0654656  )
        18        Zn     tau(  18) = (  0.3750000  0.1666667  0.1636640  )
        19        Zn     tau(  19) = (  0.3745119  0.1685658  0.2631690  )
        20        Zn     tau(  20) = (  0.3750149  0.1844099  0.3675944  )
        21        Zn     tau(  21) = (  0.3750000  0.6666667  0.0654656  )
        22        Zn     tau(  22) = (  0.3750000  0.6666667  0.1636640  )
        23        Zn     tau(  23) = (  0.3745072  0.6697982  0.2632295  )
        24        Zn     tau(  24) = (  0.3753923  0.6785956  0.3653627  )
        25        Zn     tau(  25) = (  0.8750000  0.1666667  0.0654656  )
        26        Zn     tau(  26) = (  0.8750000  0.1666667  0.1636640  )
        27        Zn     tau(  27) = (  0.8748758  0.1706403  0.2637432  )
        28        Zn     tau(  28) = (  0.8753102  0.1854297  0.3679894  )
        29        Zn     tau(  29) = (  0.8750000  0.6666667  0.0654656  )
        30        Zn     tau(  30) = (  0.8750000  0.6666667  0.1636640  )
        31        Zn     tau(  31) = (  0.8747709  0.6705298  0.2637142  )
        32        Zn     tau(  32) = (  0.8754110  0.6857805  0.3680822  )
        33        C      tau(  33) = (  0.3767653  1.6413446  0.7623706  )
        34        C      tau(  34) = (  0.3734012  1.5025425  0.7006836  )
[...]
     atom   20 type  1   force =    -0.49986885   -0.09483779 -358.76962446
     atom   21 type  1   force =    -0.00344766   -0.02792186  341.02924043
     atom   22 type  1   force =    -0.04870705    0.03281385   89.08729284
     atom   23 type  1   force =    -0.11229484   -0.29099034 -136.61163746
     atom   24 type  1   force =    -0.47743945    0.07060781 -353.97527743
     atom   25 type  1   force =     0.00631172    0.00612883  342.03113418
     atom   26 type  1   force =     0.07820868    0.02062548   88.47417522
     atom   27 type  1   force =     0.22570160   -0.00421144 -139.33222237
     atom   28 type  1   force =     0.35184663   -0.03638759 -364.84645992
     atom   29 type  1   force =     0.00659737   -0.00550034  342.03135524
     atom   30 type  1   force =     0.06228039    0.00404710   88.46215163
     atom   31 type  1   force =     0.11737424   -0.00910298 -139.30830345
     atom   32 type  1   force =     0.41051598    0.02507658 -364.90545498
     atom   33 type  2   force =    -0.03585093   -0.13600364   16.54965451
     atom   34 type  2   force =    -0.14312417    0.12524552   -6.34183318
     atom   35 type  2   force =    -5.36179772   -3.03257408  -15.10157432
     atom   36 type  2   force =     5.17286113    3.28977806  -15.80685503
     atom   37 type  2   force =     5.40759579    3.10682951  -29.74287000
     atom   38 type  2   force =    -5.28806158   -3.28679370  -29.05226547
     atom   39 type  2   force =    -0.01018165    0.00077558  -39.36335892
     atom   40 type  3   force =    -0.25201870    0.54225389   32.17961826
     atom   41 type  3   force =     0.98379253   -0.99017740  -68.01611772
     atom   42 type  4   force =     1.55729738    2.06349202  -14.61397111
     atom   43 type  4   force =    -2.45974268   -1.33974994  -14.59093403
     atom   44 type  4   force =    -2.45622302   -1.53491281   -2.57338674
     atom   45 type  4   force =     2.37575372    1.69322117   -2.87468588
     atom   46 type  4   force =     2.46250032    1.56384043   -8.60732925
     atom   47 type  4   force =    -2.39697692   -1.70295271   -8.31370262
     The core correction contribution to forces
     atom    1 type  1   force =     0.00000000    0.00000000    0.00000000
     atom    2 type  1   force =     0.00000000    0.00000000    0.00000000
     atom    3 type  1   force =     0.00000000    0.00000000    0.00000000
     atom    4 type  1   force =     0.00000000    0.00000000    0.00000000
     atom    5 type  1   force =     0.00000000    0.00000000    0.00000000
     atom    6 type  1   force =     0.00000000    0.00000000    0.00000000
     atom    7 type  1   force =     0.00000000    0.00000000    0.00000000
     atom    8 type  1   force =     0.00000000    0.00000000    0.00000000
     atom    9 type  1   force =     0.00000000    0.00000000    0.00000000
     atom   10 type  1   force =     0.00000000    0.00000000    0.00000000
     atom   11 type  1   force =     0.00000000    0.00000000    0.00000000
     atom   12 type  1   force =     0.00000000    0.00000000    0.00000000
     atom   13 type  1   force =     0.00000000    0.00000000    0.00000000
     atom   14 type  1   force =     0.00000000    0.00000000    0.00000000
     atom   15 type  1   force =     0.00000000    0.00000000    0.00000000
     atom   16 type  1   force =     0.00000000    0.00000000    0.00000000
     atom   17 type  1   force =     0.00000000    0.00000000    0.00000000
     atom   18 type  1   force =     0.00000000    0.00000000    0.00000000
     atom   19 type  1   force =     0.00000000    0.00000000    0.00000000
     atom   20 type  1   force =     0.00000000    0.00000000    0.00000000
     atom   21 type  1   force =     0.00000000    0.00000000    0.00000000
     atom   22 type  1   force =     0.00000000    0.00000000    0.00000000
     atom   23 type  1   force =     0.00000000    0.00000000    0.00000000
     atom   24 type  1   force =     0.00000000    0.00000000    0.00000000
     atom   25 type  1   force =     0.00000000    0.00000000    0.00000000
     atom   26 type  1   force =     0.00000000    0.00000000    0.00000000
     atom   27 type  1   force =     0.00000000    0.00000000    0.00000000
     atom   28 type  1   force =     0.00000000    0.00000000    0.00000000
     atom   29 type  1   force =     0.00000000    0.00000000    0.00000000
     atom   30 type  1   force =     0.00000000    0.00000000    0.00000000
     atom   31 type  1   force =     0.00000000    0.00000000    0.00000000
     atom   32 type  1   force =     0.00000000    0.00000000    0.00000000
     atom   33 type  2   force =     0.00016796   -0.00110673    0.01711098
     atom   34 type  2   force =    -0.00058772    0.00025608   -0.00568079
     atom   35 type  2   force =    -0.00014810   -0.00033549   -0.00185165
     atom   36 type  2   force =     0.00012422    0.00040717   -0.00154950
     atom   37 type  2   force =     0.00115168    0.00058436    0.00237599
     atom   38 type  2   force =    -0.00114425   -0.00063571    0.00226884
     atom   39 type  2   force =    -0.00003180   -0.00103594    0.00639658
     atom   40 type  3   force =     0.00021098   -0.00064985    0.00938317
     atom   41 type  3   force =    -0.00416027    0.00424317   -0.00115651
     atom   42 type  4   force =     0.00000000    0.00000000    0.00000000
     atom   43 type  4   force =     0.00000000    0.00000000    0.00000000
     atom   44 type  4   force =     0.00000000    0.00000000    0.00000000
     atom   45 type  4   force =     0.00000000    0.00000000    0.00000000
     atom   46 type  4   force =     0.00000000    0.00000000    0.00000000
     atom   47 type  4   force =     0.00000000    0.00000000    0.00000000
     The Hubbard contrib.    to forces
     atom    1 type  1   force =     0.00000000    0.00000000    0.00000000
     atom    2 type  1   force =     0.00000000    0.00000000    0.00000000
     atom    3 type  1   force =     0.00000000    0.00000000    0.00000000
     atom    4 type  1   force =     0.00000000    0.00000000    0.00000000
     atom    5 type  1   force =     0.00000000    0.00000000    0.00000000
     atom    6 type  1   force =     0.00000000    0.00000000    0.00000000
     atom    7 type  1   force =     0.00000000    0.00000000    0.00000000
     atom    8 type  1   force =     0.00000000    0.00000000    0.00000000
     atom    9 type  1   force =     0.00000000    0.00000000    0.00000000
     atom   10 type  1   force =     0.00000000    0.00000000    0.00000000
     atom   11 type  1   force =     0.00000000    0.00000000    0.00000000
     atom   12 type  1   force =     0.00000000    0.00000000    0.00000000
     atom   13 type  1   force =     0.00000000    0.00000000    0.00000000
     atom   14 type  1   force =     0.00000000    0.00000000    0.00000000
     atom   15 type  1   force =     0.00000000    0.00000000    0.00000000
     atom   16 type  1   force =     0.00000000    0.00000000    0.00000000
     atom   17 type  1   force =     0.00000000    0.00000000    0.00000000
     atom   18 type  1   force =     0.00000000    0.00000000    0.00000000
     atom   19 type  1   force =     0.00000000    0.00000000    0.00000000
     atom   20 type  1   force =     0.00000000    0.00000000    0.00000000
     atom   21 type  1   force =     0.00000000    0.00000000    0.00000000
     atom   22 type  1   force =     0.00000000    0.00000000    0.00000000
     atom   23 type  1   force =     0.00000000    0.00000000    0.00000000
     atom   24 type  1   force =     0.00000000    0.00000000    0.00000000
     atom   25 type  1   force =     0.00000000    0.00000000    0.00000000
     atom   26 type  1   force =     0.00000000    0.00000000    0.00000000
     atom   27 type  1   force =     0.00000000    0.00000000    0.00000000
     atom   28 type  1   force =     0.00000000    0.00000000    0.00000000
     atom   29 type  1   force =     0.00000000    0.00000000    0.00000000
     atom   30 type  1   force =     0.00000000    0.00000000    0.00000000
     atom   31 type  1   force =     0.00000000    0.00000000    0.00000000
     atom   32 type  1   force =     0.00000000    0.00000000    0.00000000
     atom   33 type  2   force =     0.00000000    0.00000000    0.00000000
     atom   34 type  2   force =     0.00000000    0.00000000    0.00000000
     atom   35 type  2   force =     0.00000000    0.00000000    0.00000000
     atom   36 type  2   force =     0.00000000    0.00000000    0.00000000
     atom   37 type  2   force =     0.00000000    0.00000000    0.00000000
     atom   38 type  2   force =     0.00000000    0.00000000    0.00000000
     atom   39 type  2   force =     0.00000000    0.00000000    0.00000000
     atom   40 type  3   force =     0.00000000    0.00000000    0.00000000
     atom   41 type  3   force =     0.00000000    0.00000000    0.00000000
     atom   42 type  4   force =     0.00000000    0.00000000    0.00000000
     atom   43 type  4   force =     0.00000000    0.00000000    0.00000000
     atom   44 type  4   force =     0.00000000    0.00000000    0.00000000
     atom   45 type  4   force =     0.00000000    0.00000000    0.00000000
     atom   46 type  4   force =     0.00000000    0.00000000    0.00000000
     atom   47 type  4   force =     0.00000000    0.00000000    0.00000000
     The SCF correction term to forces
     atom    1 type  1   force =     0.00000000    0.00000000    0.00000000
     atom    2 type  1   force =     0.00000000    0.00000000    0.00000000
     atom    3 type  1   force =     0.00089972   -0.00000466   -0.00128967
     atom    4 type  1   force =    -0.00057381    0.00000318    0.00018160
     atom    5 type  1   force =     0.00000000   -0.00000000    0.00000000
     atom    6 type  1   force =     0.00000000   -0.00000000    0.00000000
     atom    7 type  1   force =     0.00090656    0.00000442   -0.00128638
     atom    8 type  1   force =    -0.00056977   -0.00000390    0.00018760
     atom    9 type  1   force =    -0.00000000   -0.00000000    0.00000000
     atom   10 type  1   force =    -0.00000000   -0.00000000    0.00000000
     atom   11 type  1   force =    -0.00085574    0.00000088   -0.00088387
     atom   12 type  1   force =     0.00058881   -0.00000033    0.00073328
     atom   13 type  1   force =    -0.00000000    0.00000000    0.00000000
     atom   14 type  1   force =    -0.00000000    0.00000000    0.00000000
     atom   15 type  1   force =    -0.00086477   -0.00000092   -0.00087815
     atom   16 type  1   force =     0.00057861    0.00000090    0.00073511
     atom   17 type  1   force =    -0.00000000    0.00000000    0.00000000
     atom   18 type  1   force =    -0.00000000    0.00000000   -0.00000000
     atom   19 type  1   force =    -0.00076843   -0.00002071   -0.00214543
     atom   20 type  1   force =    -0.00037881   -0.00001219    0.00019251
     atom   21 type  1   force =    -0.00000000   -0.00000000    0.00000000
     atom   22 type  1   force =    -0.00000000    0.00000000   -0.00000000
     atom   23 type  1   force =    -0.00076496    0.00001991   -0.00213149
     atom   24 type  1   force =    -0.00039205    0.00001277    0.00018406
     atom   25 type  1   force =     0.00000000    0.00000000    0.00000000
     atom   26 type  1   force =     0.00000000   -0.00000000    0.00000000
     atom   27 type  1   force =     0.00075765   -0.00000178    0.00025155
     atom   28 type  1   force =     0.00035554    0.00000301    0.00082442
     atom   29 type  1   force =     0.00000000   -0.00000000    0.00000000
     atom   30 type  1   force =     0.00000000    0.00000000    0.00000000
     atom   31 type  1   force =     0.00075629    0.00000231    0.00024897
     atom   32 type  1   force =     0.00035332   -0.00000252    0.00081929
     atom   33 type  2   force =     0.00000639   -0.00002211    0.00040337
     atom   34 type  2   force =     0.00000403   -0.00000394    0.00013291
     atom   35 type  2   force =     0.00007888    0.00006579   -0.00001257
     atom   36 type  2   force =    -0.00008383   -0.00006247   -0.00002732
     atom   37 type  2   force =    -0.00007237   -0.00003712   -0.00019574
     atom   38 type  2   force =     0.00005131    0.00005931   -0.00018392
     atom   39 type  2   force =    -0.00002264    0.00001553   -0.00020394
     atom   40 type  3   force =    -0.00000258   -0.00001320    0.00028059
     atom   41 type  3   force =    -0.00003630    0.00001994   -0.00003106
     atom   42 type  4   force =     0.00000608    0.00002398    0.00002089
     atom   43 type  4   force =    -0.00002540   -0.00001248    0.00002125
     atom   44 type  4   force =     0.00003023    0.00002323    0.00002098
     atom   45 type  4   force =    -0.00003067   -0.00002584    0.00001789
     atom   46 type  4   force =    -0.00000429    0.00000223   -0.00001914
     atom   47 type  4   force =     0.00000270   -0.00000013   -0.00001836

     Total force =     0.043270     Total SCF correction =     0.004944
     SCF correction compared to forces is large: reduce conv_thr to get better values

     Computing stress (Cartesian axis) and pressure

     negative rho (up, down):  8.742E-04 0.000E+00
          total   stress  (Ry/bohr**3)                   (kbar)     P=      -11.75
  -0.00010605  -0.00000585  -0.00000057          -15.60       -0.86       -0.08
  -0.00000585  -0.00015809   0.00000031           -0.86      -23.26        0.05
  -0.00000057   0.00000031   0.00002459           -0.08        0.05        3.62

     kinetic stress (kbar)  16965.91    -62.91     -3.09
                              -62.91  16900.60      4.74
                               -3.09      4.74  16881.37

     local   stress (kbar)**********  -1103.30   -261.21
                            -1103.30**********    194.64
                             -261.21    194.641142367.97

     nonloc. stress (kbar)  -1467.14      4.48      0.77
                                4.48  -1437.57     -1.11
                                0.77     -1.11  -1469.11

     hartree stress (kbar) 600906.04    361.57    106.75
                              361.57 610751.39    -67.67
                              106.75    -67.67-528026.71

     exc-cor stress (kbar)  -8104.81      3.11      0.31
                                3.11  -8100.29     -0.42
                                0.31     -0.42  -8102.49

     corecor stress (kbar)   -159.06     -0.95     -0.12
                               -0.95   -159.13      0.15
                               -0.12      0.15   -160.86

     ewald   stress (kbar) 520493.63    797.13    156.50
                              797.13 532974.29   -130.28
                              156.50   -130.28-621486.55

     hubbard stress (kbar)      0.00      0.00      0.00
                                0.00      0.00      0.00
                                0.00      0.00      0.00

     DFT-D   stress (kbar)      0.00      0.00      0.00
                                0.00      0.00      0.00
                                0.00      0.00      0.00

     XDM     stress (kbar)      0.00      0.00      0.00
                                0.00      0.00      0.00
                                0.00      0.00      0.00

     dft-nl  stress (kbar)      0.00      0.00      0.00
                                0.00      0.00      0.00
                                0.00      0.00      0.00

     TS-vdW  stress (kbar)      0.00      0.00      0.00
                                0.00      0.00      0.00
                                0.00      0.00      0.00

     MDB     stress (kbar)      0.00      0.00      0.00
                                0.00      0.00      0.00
                                0.00      0.00      0.00

     3D-RISM stress (kbar)      0.00      0.00      0.00
                                0.00      0.00      0.00
                                0.00      0.00      0.00

     Writing all to output data dir ./tmp/Zn100_2x2x4_scf_ABN.save/ :
     XML data file, charge density, pseudopotentials, collected wavefunctions

     General routines

     Parallel routines

     PAW routines

   This run was terminated on:   8:54:48  17Mar2025

   JOB DONE.
Note: The following floating-point exceptions are signalling: IEEE_DENORMAL
Note: The following floating-point exceptions are signalling: IEEE_DENORMAL
Note: The following floating-point exceptions are signalling: IEEE_DENORMAL
Note: The following floating-point exceptions are signalling: IEEE_DENORMAL
Note: The following floating-point exceptions are signalling: IEEE_DENORMAL
Note: The following floating-point exceptions are signalling: IEEE_DENORMAL
Note: The following floating-point exceptions are signalling: IEEE_DENORMAL