     Program PWSCF v.7.3.1 starts on 24Mar2025 at 17:50: 4

     Waiting for input...
     Reading input from standard input

     Current dimensions of program PWSCF are:
     Max number of different atomic species (ntypx) = 10
     Max number of k-points (npk) =  40000
     Max angular momentum in pseudopotentials (lmaxx) =  4
     Message from routine input:
     WARNING: "startingwfc" set to atomic+random may spoil restart
     Message from routine input:
     WARNING: "startingpot" set to atomic may spoil restart
     Message from routine iosys:
     restart disabled: needed files not found
     file O.pbe-n-kjpaw_psl.0.1.UPF: wavefunction(s)  2P renormalized

     Atomic positions and unit cell read from directory:
     ./tmp/Zn002_optimized_topsite_H2O_scf.save/
     Message from routine qexsd_readschema :
     xml data file ./tmp/Zn002_optimized_topsite_H2O_scf.save/data-file-schema.xml no
     Nothing found: using input atomic positions and unit cell

     R & G space division:  proc/nbgrp/npool/nimage =      33
     Subspace diagonalization in iterative solution of the eigenvalue problem:
     one sub-group per band group will be used

     Using Slab Decomposition

     bravais-lattice index     =            0
     lattice parameter (alat)  =      19.7617  a.u.
     unit-cell volume          =   15176.5939 (a.u.)^3
     number of atoms/cell      =           67
     number of atomic types    =            3
     number of electrons       =      1288.00
     number of Kohn-Sham states=          773
     kinetic-energy cutoff     =      30.0000  Ry
     charge density cutoff     =     120.0000  Ry
     scf convergence threshold =      1.0E-08
     mixing beta               =       0.7000
     number of iterations used =            8  plain     mixing
     Exchange-correlation= PBE
                           (   1   4   3   4   0   0   0)

     celldm(1)=  19.761696  celldm(2)=   0.000000  celldm(3)=   0.000000
     celldm(4)=   0.000000  celldm(5)=   0.000000  celldm(6)=   0.000000

     crystal axes: (cart. coord. in units of alat)
               a(1) = (   1.000000   0.000000   0.000000 )
               a(2) = (  -0.500000   0.866025   0.000000 )
               a(3) = (   0.000000   0.000000   2.270759 )

     reciprocal axes: (cart. coord. in units 2 pi/alat)
               b(1) = (  1.000000  0.577350 -0.000000 )
               b(2) = (  0.000000  1.154701  0.000000 )
               b(3) = (  0.000000 -0.000000  0.440381 )

     PseudoPot. # 1 for Zn read from file:
     /home/ys/qepseudo/SSSP_1.3.0_PBE_efficiency/Zn_pbe_v1.uspp.F.UPF
     MD5 check sum: df62231357ef9e81f77b2b3087fa5675
     Pseudo is Ultrasoft, Zval = 20.0
     Generated by new atomic code, or converted to UPF format
     Using radial grid of  943 points,  6 beta functions with:
                l(1) =   0
                l(2) =   0
                l(3) =   1
                l(4) =   1
                l(5) =   2
                l(6) =   2
     Q(r) pseudized with  8 coefficients,  rinner =    1.100   1.100   1.100
                                                       1.100   1.100

     PseudoPot. # 2 for O  read from file:
     /home/ys/qepseudo/SSSP_1.3.0_PBE_efficiency/O.pbe-n-kjpaw_psl.0.1.UPF
     MD5 check sum: 0234752ac141de4415c5fc33072bef88
     Pseudo is Projector augmented-wave + core cor, Zval =  6.0
     Generated using "atomic" code by A. Dal Corso  v.5.0.99 svn rev. 10869
     Shape of augmentation charge: BESSEL
     Using radial grid of 1095 points,  4 beta functions with:
                l(1) =   0
                l(2) =   0
                l(3) =   1
                l(4) =   1
     Q(r) pseudized with 0 coefficients

     PseudoPot. # 3 for H  read from file:
     /home/ys/qepseudo/SSSP_1.3.0_PBE_efficiency/H.pbe-rrkjus_psl.1.0.0.UPF
     MD5 check sum: f52b6d4d1c606e5624b1dc7b2218f220
     Pseudo is Ultrasoft, Zval =  1.0
     Generated using "atomic" code by A. Dal Corso  v.5.1
     Using radial grid of  929 points,  2 beta functions with:
                l(1) =   0
                l(2) =   0
     Q(r) pseudized with 0 coefficients

     atomic species   valence    mass     pseudopotential
     Zn               20.00    65.38000     Zn( 1.00)
     O                 6.00    16.00000     O ( 1.00)
     H                 1.00     1.00800     H ( 1.00)

     No symmetry found

                                    s                        frac. trans.

      isym =  1     identity

 cryst.   s( 1) = (     1          0          0      )
                  (     0          1          0      )
                  (     0          0          1      )

 cart.    s( 1) = (  1.0000000  0.0000000  0.0000000 )
                  (  0.0000000  1.0000000  0.0000000 )
                  (  0.0000000  0.0000000  1.0000000 )

   Cartesian axes

     site n.     atom                  positions (alat units)
         1        Zn     tau(   1) = (  -0.0000000   0.1443376   0.1164999  )
         2        Zn     tau(   2) = (   0.5000000   0.1443376   0.1164999  )
         3        Zn     tau(   3) = (  -0.0000260   0.1441947   0.5712039  )
         4        Zn     tau(   4) = (   0.5000554   0.1442490   0.5714873  )
         5        Zn     tau(   5) = (  -0.1250000   0.3608439   0.1164999  )
         6        Zn     tau(   6) = (   0.3750000   0.3608439   0.1164999  )
         7        Zn     tau(   7) = (  -0.1245433   0.3611688   0.5722961  )
         8        Zn     tau(   8) = (   0.3745778   0.3610474   0.5719271  )
         9        Zn     tau(   9) = (  -0.2500000   0.5773503   0.1164999  )
        10        Zn     tau(  10) = (   0.2500000   0.5773503   0.1164999  )
        11        Zn     tau(  11) = (  -0.2499886   0.5773720   0.5713334  )
        12        Zn     tau(  12) = (   0.2494203   0.5771042   0.5721571  )
        13        Zn     tau(  13) = (  -0.3750000   0.7938566   0.1164999  )
        14        Zn     tau(  14) = (   0.1250000   0.7938566   0.1164999  )
        15        Zn     tau(  15) = (  -0.3749429   0.7938228   0.5719796  )
        16        Zn     tau(  16) = (   0.1249263   0.7932436   0.5725182  )
        17        Zn     tau(  17) = (   0.2500000   0.1443376   0.1164999  )
        18        Zn     tau(  18) = (   0.7500000   0.1443376   0.1164999  )
        19        Zn     tau(  19) = (   0.2500610   0.1441321   0.5711183  )
        20        Zn     tau(  20) = (   0.7499342   0.1443027   0.5713543  )
        21        Zn     tau(  21) = (   0.1250000   0.3608439   0.1164999  )
        22        Zn     tau(  22) = (   0.6250000   0.3608439   0.1164999  )
        23        Zn     tau(  23) = (   0.1249439   0.3614496   0.5720736  )
        24        Zn     tau(  24) = (   0.6250503   0.3607594   0.5714971  )
        25        Zn     tau(  25) = (  -0.0000000   0.5773503   0.1164999  )
        26        Zn     tau(  26) = (   0.5000000   0.5773503   0.1164999  )
        27        Zn     tau(  27) = (   0.0004409   0.5771072   0.5721628  )
        28        Zn     tau(  28) = (   0.5001534   0.5773883   0.5712101  )
        29        Zn     tau(  29) = (  -0.1250000   0.7938566   0.1164999  )
        30        Zn     tau(  30) = (   0.3750000   0.7938566   0.1164999  )
        31        Zn     tau(  31) = (  -0.1250030   0.7938418   0.5713530  )
        32        Zn     tau(  32) = (   0.3750573   0.7939133   0.5713092  )
        33        Zn     tau(  33) = (   0.1250000   0.0721688   0.3494996  )
        34        Zn     tau(  34) = (   0.6250000   0.0721688   0.3494996  )
        35        Zn     tau(  35) = (   0.1250464   0.0722549   0.8162060  )
        36        Zn     tau(  36) = (   0.6250727   0.0719749   0.8160242  )
        37        Zn     tau(  37) = (   0.0000000   0.2886751   0.3494996  )
        38        Zn     tau(  38) = (   0.5000000   0.2886751   0.3494996  )
        39        Zn     tau(  39) = (   0.0007943   0.2898874   0.8099720  )
        40        Zn     tau(  40) = (   0.4999958   0.2885922   0.8162311  )
        41        Zn     tau(  41) = (  -0.1250000   0.5051815   0.3494996  )
        42        Zn     tau(  42) = (   0.3750000   0.5051815   0.3494996  )
        43        Zn     tau(  43) = (  -0.1234399   0.5051077   0.8117790  )
        44        Zn     tau(  44) = (   0.3735979   0.5050821   0.8096427  )
        45        Zn     tau(  45) = (  -0.2500000   0.7216878   0.3494996  )
        46        Zn     tau(  46) = (   0.2500000   0.7216878   0.3494996  )
        47        Zn     tau(  47) = (  -0.2497247   0.7215152   0.8158446  )
        48        Zn     tau(  48) = (   0.2491907   0.7201629   0.8109335  )
        49        Zn     tau(  49) = (   0.3750000   0.0721688   0.3494996  )
        50        Zn     tau(  50) = (   0.8750000   0.0721688   0.3494996  )
        51        Zn     tau(  51) = (   0.3750978   0.0718738   0.8142790  )
        52        Zn     tau(  52) = (   0.8750764   0.0719843   0.8143674  )
        53        Zn     tau(  53) = (   0.2500000   0.2886751   0.3494996  )
        54        Zn     tau(  54) = (   0.7500000   0.2886751   0.3494996  )
        55        Zn     tau(  55) = (   0.2493680   0.2897524   0.8093725  )
        56        Zn     tau(  56) = (   0.7501315   0.2885928   0.8161008  )
        57        Zn     tau(  57) = (   0.1250000   0.5051815   0.3494996  )
        58        Zn     tau(  58) = (   0.6250000   0.5051815   0.3494996  )
        59        Zn     tau(  59) = (   0.1247267   0.5051803   0.8611321  )
        60        Zn     tau(  60) = (   0.6252000   0.5051754   0.8143139  )
        61        Zn     tau(  61) = (   0.0000000   0.7216878   0.3494996  )
        62        Zn     tau(  62) = (   0.5000000   0.7216878   0.3494996  )
        63        Zn     tau(  63) = (   0.0008118   0.7202436   0.8120159  )
        64        Zn     tau(  64) = (   0.4999149   0.7215824   0.8160586  )
        65        O      tau(  65) = (   0.1268510   0.4971885   1.0966985  )
        66        H      tau(  66) = (   0.2106782   0.5293171   1.1241029  )
        67        H      tau(  67) = (   0.1284392   0.4058406   1.1183117  )

   Crystallographic axes

     site n.     atom                  positions (cryst. coord.)
         1        Zn     tau(   1) = (  0.0833333  0.1666667  0.0513044  )
         2        Zn     tau(   2) = (  0.5833333  0.1666667  0.0513044  )
         3        Zn     tau(   3) = (  0.0832248  0.1665016  0.2515476  )
         4        Zn     tau(   4) = (  0.5833376  0.1665644  0.2516724  )
         5        Zn     tau(   5) = (  0.0833333  0.4166667  0.0513044  )
         6        Zn     tau(   6) = (  0.5833333  0.4166667  0.0513044  )
         7        Zn     tau(   7) = (  0.0839776  0.4170419  0.2520286  )
         8        Zn     tau(   8) = (  0.5830286  0.4169016  0.2518661  )
         9        Zn     tau(   9) = (  0.0833333  0.6666667  0.0513044  )
        10        Zn     tau(  10) = (  0.5833333  0.6666667  0.0513044  )
        11        Zn     tau(  11) = (  0.0833573  0.6666918  0.2516046  )
        12        Zn     tau(  12) = (  0.5826115  0.6663825  0.2519674  )
        13        Zn     tau(  13) = (  0.0833333  0.9166667  0.0513044  )
[...]
     atom   37 type  1   force =     0.00000000    0.00000000    0.00000000
     atom   38 type  1   force =     0.00000000    0.00000000    0.00000000
     atom   39 type  1   force =     0.00000000    0.00000000    0.00000000
     atom   40 type  1   force =     0.00000000    0.00000000    0.00000000
     atom   41 type  1   force =     0.00000000    0.00000000    0.00000000
     atom   42 type  1   force =     0.00000000    0.00000000    0.00000000
     atom   43 type  1   force =     0.00000000    0.00000000    0.00000000
     atom   44 type  1   force =     0.00000000    0.00000000    0.00000000
     atom   45 type  1   force =     0.00000000    0.00000000    0.00000000
     atom   46 type  1   force =     0.00000000    0.00000000    0.00000000
     atom   47 type  1   force =     0.00000000    0.00000000    0.00000000
     atom   48 type  1   force =     0.00000000    0.00000000    0.00000000
     atom   49 type  1   force =     0.00000000    0.00000000    0.00000000
     atom   50 type  1   force =     0.00000000    0.00000000    0.00000000
     atom   51 type  1   force =     0.00000000    0.00000000    0.00000000
     atom   52 type  1   force =     0.00000000    0.00000000    0.00000000
     atom   53 type  1   force =     0.00000000    0.00000000    0.00000000
     atom   54 type  1   force =     0.00000000    0.00000000    0.00000000
     atom   55 type  1   force =     0.00000000    0.00000000    0.00000000
     atom   56 type  1   force =     0.00000000    0.00000000    0.00000000
     atom   57 type  1   force =     0.00000000    0.00000000    0.00000000
     atom   58 type  1   force =     0.00000000    0.00000000    0.00000000
     atom   59 type  1   force =     0.00000000    0.00000000    0.00000000
     atom   60 type  1   force =     0.00000000    0.00000000    0.00000000
     atom   61 type  1   force =     0.00000000    0.00000000    0.00000000
     atom   62 type  1   force =     0.00000000    0.00000000    0.00000000
     atom   63 type  1   force =     0.00000000    0.00000000    0.00000000
     atom   64 type  1   force =     0.00000000    0.00000000    0.00000000
     atom   65 type  2   force =    -0.01811067    0.01217241   -0.00824038
     atom   66 type  3   force =     0.00000000    0.00000000    0.00000000
     atom   67 type  3   force =     0.00000000    0.00000000    0.00000000
     The Hubbard contrib.    to forces
     atom    1 type  1   force =     0.00000000    0.00000000    0.00000000
     atom    2 type  1   force =     0.00000000    0.00000000    0.00000000
     atom    3 type  1   force =     0.00000000    0.00000000    0.00000000
     atom    4 type  1   force =     0.00000000    0.00000000    0.00000000
     atom    5 type  1   force =     0.00000000    0.00000000    0.00000000
     atom    6 type  1   force =     0.00000000    0.00000000    0.00000000
     atom    7 type  1   force =     0.00000000    0.00000000    0.00000000
     atom    8 type  1   force =     0.00000000    0.00000000    0.00000000
     atom    9 type  1   force =     0.00000000    0.00000000    0.00000000
     atom   10 type  1   force =     0.00000000    0.00000000    0.00000000
     atom   11 type  1   force =     0.00000000    0.00000000    0.00000000
     atom   12 type  1   force =     0.00000000    0.00000000    0.00000000
     atom   13 type  1   force =     0.00000000    0.00000000    0.00000000
     atom   14 type  1   force =     0.00000000    0.00000000    0.00000000
     atom   15 type  1   force =     0.00000000    0.00000000    0.00000000
     atom   16 type  1   force =     0.00000000    0.00000000    0.00000000
     atom   17 type  1   force =     0.00000000    0.00000000    0.00000000
     atom   18 type  1   force =     0.00000000    0.00000000    0.00000000
     atom   19 type  1   force =     0.00000000    0.00000000    0.00000000
     atom   20 type  1   force =     0.00000000    0.00000000    0.00000000
     atom   21 type  1   force =     0.00000000    0.00000000    0.00000000
     atom   22 type  1   force =     0.00000000    0.00000000    0.00000000
     atom   23 type  1   force =     0.00000000    0.00000000    0.00000000
     atom   24 type  1   force =     0.00000000    0.00000000    0.00000000
     atom   25 type  1   force =     0.00000000    0.00000000    0.00000000
     atom   26 type  1   force =     0.00000000    0.00000000    0.00000000
     atom   27 type  1   force =     0.00000000    0.00000000    0.00000000
     atom   28 type  1   force =     0.00000000    0.00000000    0.00000000
     atom   29 type  1   force =     0.00000000    0.00000000    0.00000000
     atom   30 type  1   force =     0.00000000    0.00000000    0.00000000
     atom   31 type  1   force =     0.00000000    0.00000000    0.00000000
     atom   32 type  1   force =     0.00000000    0.00000000    0.00000000
     atom   33 type  1   force =     0.00000000    0.00000000    0.00000000
     atom   34 type  1   force =     0.00000000    0.00000000    0.00000000
     atom   35 type  1   force =     0.00000000    0.00000000    0.00000000
     atom   36 type  1   force =     0.00000000    0.00000000    0.00000000
     atom   37 type  1   force =     0.00000000    0.00000000    0.00000000
     atom   38 type  1   force =     0.00000000    0.00000000    0.00000000
     atom   39 type  1   force =     0.00000000    0.00000000    0.00000000
     atom   40 type  1   force =     0.00000000    0.00000000    0.00000000
     atom   41 type  1   force =     0.00000000    0.00000000    0.00000000
     atom   42 type  1   force =     0.00000000    0.00000000    0.00000000
     atom   43 type  1   force =     0.00000000    0.00000000    0.00000000
     atom   44 type  1   force =     0.00000000    0.00000000    0.00000000
     atom   45 type  1   force =     0.00000000    0.00000000    0.00000000
     atom   46 type  1   force =     0.00000000    0.00000000    0.00000000
     atom   47 type  1   force =     0.00000000    0.00000000    0.00000000
     atom   48 type  1   force =     0.00000000    0.00000000    0.00000000
     atom   49 type  1   force =     0.00000000    0.00000000    0.00000000
     atom   50 type  1   force =     0.00000000    0.00000000    0.00000000
     atom   51 type  1   force =     0.00000000    0.00000000    0.00000000
     atom   52 type  1   force =     0.00000000    0.00000000    0.00000000
     atom   53 type  1   force =     0.00000000    0.00000000    0.00000000
     atom   54 type  1   force =     0.00000000    0.00000000    0.00000000
     atom   55 type  1   force =     0.00000000    0.00000000    0.00000000
     atom   56 type  1   force =     0.00000000    0.00000000    0.00000000
     atom   57 type  1   force =     0.00000000    0.00000000    0.00000000
     atom   58 type  1   force =     0.00000000    0.00000000    0.00000000
     atom   59 type  1   force =     0.00000000    0.00000000    0.00000000
     atom   60 type  1   force =     0.00000000    0.00000000    0.00000000
     atom   61 type  1   force =     0.00000000    0.00000000    0.00000000
     atom   62 type  1   force =     0.00000000    0.00000000    0.00000000
     atom   63 type  1   force =     0.00000000    0.00000000    0.00000000
     atom   64 type  1   force =     0.00000000    0.00000000    0.00000000
     atom   65 type  2   force =     0.00000000    0.00000000    0.00000000
     atom   66 type  3   force =     0.00000000    0.00000000    0.00000000
     atom   67 type  3   force =     0.00000000    0.00000000    0.00000000
     The SCF correction term to forces
     atom    1 type  1   force =     0.00000055   -0.00001114    0.00002846
     atom    2 type  1   force =     0.00000285    0.00001903    0.00003698
     atom    3 type  1   force =     0.00000281   -0.00008489   -0.00001952
     atom    4 type  1   force =     0.00000160    0.00007146   -0.00001271
     atom    5 type  1   force =    -0.00002168   -0.00002477    0.00001204
     atom    6 type  1   force =     0.00002119   -0.00001599    0.00002565
     atom    7 type  1   force =    -0.00008349   -0.00009766   -0.00004699
     atom    8 type  1   force =     0.00009195   -0.00006026   -0.00002510
     atom    9 type  1   force =    -0.00003032    0.00000048    0.00001442
     atom   10 type  1   force =     0.00002656   -0.00000382    0.00000357
     atom   11 type  1   force =    -0.00012803    0.00001358   -0.00002727
     atom   12 type  1   force =     0.00011366    0.00000488   -0.00004993
     atom   13 type  1   force =    -0.00000292    0.00000515    0.00003442
     atom   14 type  1   force =     0.00000753    0.00003325    0.00000880
     atom   15 type  1   force =    -0.00003546    0.00002786   -0.00000098
     atom   16 type  1   force =     0.00003739    0.00012426   -0.00004504
     atom   17 type  1   force =     0.00000640   -0.00000426    0.00003176
     atom   18 type  1   force =    -0.00001016    0.00000925    0.00003486
     atom   19 type  1   force =     0.00001263   -0.00003474   -0.00001586
     atom   20 type  1   force =    -0.00001696    0.00001576   -0.00001428
     atom   21 type  1   force =     0.00001381   -0.00002667    0.00000648
     atom   22 type  1   force =    -0.00001228   -0.00001380    0.00003688
     atom   23 type  1   force =     0.00004713   -0.00011154   -0.00005164
     atom   24 type  1   force =    -0.00005575   -0.00004091   -0.00001377
     atom   25 type  1   force =    -0.00000546   -0.00000024   -0.00001267
     atom   26 type  1   force =     0.00001053   -0.00000500    0.00002755
     atom   27 type  1   force =    -0.00002697    0.00000902   -0.00006790
     atom   28 type  1   force =     0.00004224    0.00000309   -0.00001441
     atom   29 type  1   force =    -0.00001826    0.00002778    0.00001448
     atom   30 type  1   force =     0.00001270    0.00001026    0.00002443
     atom   31 type  1   force =    -0.00008167    0.00010861   -0.00002643
     atom   32 type  1   force =     0.00008027    0.00005075   -0.00001672
     atom   33 type  1   force =    -0.00000175   -0.00001651    0.00003030
     atom   34 type  1   force =     0.00000366    0.00006359    0.00001269
     atom   35 type  1   force =    -0.00000505   -0.00003662   -0.00002563
     atom   36 type  1   force =     0.00000651    0.00008896   -0.00001511
     atom   37 type  1   force =    -0.00000931   -0.00006822   -0.00001134
     atom   38 type  1   force =     0.00001288   -0.00000981    0.00003100
     atom   39 type  1   force =    -0.00000330   -0.00009814    0.00003487
     atom   40 type  1   force =     0.00001823   -0.00001334   -0.00003694
     atom   41 type  1   force =    -0.00005637   -0.00002718   -0.00003572
     atom   42 type  1   force =     0.00006243   -0.00002129    0.00000495
     atom   43 type  1   force =    -0.00007849   -0.00002650    0.00005396
     atom   44 type  1   force =     0.00007961   -0.00002362    0.00002165
     atom   45 type  1   force =    -0.00006173    0.00003793    0.00000204
     atom   46 type  1   force =     0.00005155    0.00004374   -0.00001537
     atom   47 type  1   force =    -0.00009387    0.00005637   -0.00000545
     atom   48 type  1   force =     0.00008198    0.00005368    0.00003795
     atom   49 type  1   force =    -0.00001352    0.00004806    0.00001626
     atom   50 type  1   force =     0.00001144    0.00000207    0.00002626
     atom   51 type  1   force =    -0.00002257    0.00005571   -0.00002169
     atom   52 type  1   force =     0.00002065   -0.00000600   -0.00002114
     atom   53 type  1   force =     0.00004190   -0.00005105    0.00000666
     atom   54 type  1   force =    -0.00004622   -0.00003357    0.00001445
     atom   55 type  1   force =     0.00005411   -0.00006323    0.00001915
     atom   56 type  1   force =    -0.00006756   -0.00004870   -0.00001564
     atom   57 type  1   force =     0.00003286   -0.00002763   -0.00004619
     atom   58 type  1   force =    -0.00004084   -0.00001672    0.00001480
     atom   59 type  1   force =     0.00004873   -0.00003541    0.00009496
     atom   60 type  1   force =    -0.00005331   -0.00001101   -0.00001872
     atom   61 type  1   force =    -0.00001190    0.00006042   -0.00003757
     atom   62 type  1   force =     0.00002153    0.00001685    0.00002800
     atom   63 type  1   force =    -0.00002301    0.00008013    0.00005449
     atom   64 type  1   force =     0.00003477    0.00002844   -0.00002267
     atom   65 type  2   force =     0.00000550   -0.00000409    0.00000592
     atom   66 type  3   force =     0.00000046   -0.00000050    0.00000048
     atom   67 type  3   force =     0.00000062   -0.00000031    0.00000050

     Total force =     0.066096     Total SCF correction =     0.000586

     Computing stress (Cartesian axis) and pressure

     negative rho (up, down):  1.313E-02 0.000E+00
          total   stress  (Ry/bohr**3)                   (kbar)     P=     -303.15
  -0.00206440   0.00000070   0.00000079         -303.68        0.10        0.12
   0.00000070  -0.00206379  -0.00000022            0.10     -303.59       -0.03
   0.00000079  -0.00000022  -0.00205415            0.12       -0.03     -302.18

     kinetic stress (kbar)  16843.14     -6.78     -5.79
                               -6.78  16836.97      2.83
                               -5.79      2.83  16938.25

     local   stress (kbar)**********    -17.10    -38.31
                              -17.10**********     35.05
                              -38.31     35.051607789.05

     nonloc. stress (kbar)  -1993.32      0.06     -0.21
                                0.06  -1993.29      0.10
                               -0.21      0.10  -2048.14

     hartree stress (kbar) 830971.61      3.16     13.10
                                3.16 830975.46    -13.60
                               13.10    -13.60-756637.33

     exc-cor stress (kbar)  -8395.58      0.08      0.08
                                0.08  -8395.51     -0.04
                                0.08     -0.04  -8405.56

     corecor stress (kbar)     -3.91      0.01      0.01
                                0.01     -3.90     -0.01
                                0.01     -0.01     -4.04

     ewald   stress (kbar) 751350.37     20.67     31.24
                               20.67 751370.37    -24.37
                               31.24    -24.37-857934.40

     hubbard stress (kbar)      0.00      0.00      0.00
                                0.00      0.00      0.00
                                0.00      0.00      0.00

     DFT-D   stress (kbar)      0.00      0.00      0.00
                                0.00      0.00      0.00
                                0.00      0.00      0.00

     XDM     stress (kbar)      0.00      0.00      0.00
                                0.00      0.00      0.00
                                0.00      0.00      0.00

     dft-nl  stress (kbar)      0.00      0.00      0.00
                                0.00      0.00      0.00
                                0.00      0.00      0.00

     TS-vdW  stress (kbar)      0.00      0.00      0.00
                                0.00      0.00      0.00
                                0.00      0.00      0.00

     MDB     stress (kbar)      0.00      0.00      0.00
                                0.00      0.00      0.00
                                0.00      0.00      0.00

     3D-RISM stress (kbar)      0.00      0.00      0.00
                                0.00      0.00      0.00
                                0.00      0.00      0.00

     Writing all to output data dir ./tmp/Zn002_optimized_topsite_H2O_scf.save/ :
     XML data file, charge density, pseudopotentials, collected wavefunctions

     General routines

     Parallel routines

     PAW routines

   This run was terminated on:  19:13:48  24Mar2025

   JOB DONE.
Note: The following floating-point exceptions are signalling: IEEE_DENORMAL
Note: The following floating-point exceptions are signalling: IEEE_DENORMAL
Note: The following floating-point exceptions are signalling: IEEE_DENORMAL
Note: The following floating-point exceptions are signalling: IEEE_DENORMAL
Note: The following floating-point exceptions are signalling: IEEE_DENORMAL
Note: The following floating-point exceptions are signalling: IEEE_DENORMAL
Note: The following floating-point exceptions are signalling: IEEE_DENORMAL
Note: The following floating-point exceptions are signalling: IEEE_DENORMAL
Note: The following floating-point exceptions are signalling: IEEE_DENORMAL
Note: The following floating-point exceptions are signalling: IEEE_DENORMAL
Note: The following floating-point exceptions are signalling: IEEE_DENORMAL
Note: The following floating-point exceptions are signalling: IEEE_DENORMAL