     Program PWSCF v.7.3.1 starts on 17Mar2025 at 17:13:49

     Waiting for input...
     Reading input from standard input
Warning: card &CELL ignored
Warning: card   CELL_DOFREE = 'ALL' ignored
Warning: card / ignored

     Current dimensions of program PWSCF are:
     Max number of different atomic species (ntypx) = 10
     Max number of k-points (npk) =  40000
     Max angular momentum in pseudopotentials (lmaxx) =  4
     Found identity + (  0.0000 -0.5000  0.0000) symmetry
     This is a supercell, fractional translations are disabled

     R & G space division:  proc/nbgrp/npool/nimage =      32
     Subspace diagonalization in iterative solution of the eigenvalue problem:
     one sub-group per band group will be used

     Using Slab Decomposition

     bravais-lattice index     =            0
     lattice parameter (alat)  =      20.9009  a.u.
     unit-cell volume          =   16846.7507 (a.u.)^3
     number of atoms/cell      =           64
     number of atomic types    =            1
     number of electrons       =      1280.00
     number of Kohn-Sham states=          768
     kinetic-energy cutoff     =      30.0000  Ry
     charge density cutoff     =     120.0000  Ry
     scf convergence threshold =      7.3E-07
     mixing beta               =       0.7000
     number of iterations used =            8  plain     mixing
     energy convergence thresh.=      1.0E-05
     force convergence thresh. =      5.0E-04
     Exchange-correlation= SLA  PW   PBE  PBE
                           (   1   4   3   4   0   0   0)
     nstep                     =          100

     celldm(1)=  20.900943  celldm(2)=   0.000000  celldm(3)=   0.000000
     celldm(4)=   0.000000  celldm(5)=   0.000000  celldm(6)=   0.000000

     crystal axes: (cart. coord. in units of alat)
               a(1) = (   1.000000   0.000000   0.000000 )
               a(2) = (  -0.223489   0.918700   0.000000 )
               a(3) = (  -4.200249  -1.021781   2.008375 )

     reciprocal axes: (cart. coord. in units 2 pi/alat)
               b(1) = (  1.000000  0.243267  2.215131 )
               b(2) = ( -0.000000  1.088495  0.553783 )
               b(3) = (  0.000000 -0.000000  0.497915 )

     PseudoPot. # 1 for Zn read from file:
     /home/ys/qepseudo/SSSP_1.3.0_PBE_efficiency/Zn_pbe_v1.uspp.F.UPF
     MD5 check sum: df62231357ef9e81f77b2b3087fa5675
     Pseudo is Ultrasoft, Zval = 20.0
     Generated by new atomic code, or converted to UPF format
     Using radial grid of  943 points,  6 beta functions with:
                l(1) =   0
                l(2) =   0
                l(3) =   1
                l(4) =   1
                l(5) =   2
                l(6) =   2
     Q(r) pseudized with  8 coefficients,  rinner =    1.100   1.100   1.100
                                                       1.100   1.100

     atomic species   valence    mass     pseudopotential
     Zn               20.00    65.38000     Zn( 1.00)

     No symmetry found

                                    s                        frac. trans.

      isym =  1     identity

 cryst.   s( 1) = (     1          0          0      )
                  (     0          1          0      )
                  (     0          0          1      )

 cart.    s( 1) = (  1.0000000  0.0000000  0.0000000 )
                  (  0.0000000  1.0000000  0.0000000 )
                  (  0.0000000  0.0000000  1.0000000 )

   Cartesian axes

     site n.     atom                  positions (alat units)
         1        Zn     tau(   1) = (  -0.0970639   0.0980210   0.1082939  )
         2        Zn     tau(   2) = (  -0.2088085   0.5573710   0.1082939  )
         3        Zn     tau(   3) = (  -0.4853192   0.0035714   0.2939406  )
         4        Zn     tau(   4) = (  -0.5970639   0.4629214   0.2939406  )
         5        Zn     tau(   5) = (  -0.8735746  -0.0908783   0.4795873  )
         6        Zn     tau(   6) = (  -0.9853192   0.3684717   0.4795873  )
         7        Zn     tau(   7) = (  -1.2618300  -0.1853280   0.6652340  )
         8        Zn     tau(   8) = (  -1.3735746   0.2740220   0.6652340  )
         9        Zn     tau(   9) = (  -0.1529362   0.3276960   0.1082939  )
        10        Zn     tau(  10) = (  -0.2646808   0.7870460   0.1082939  )
        11        Zn     tau(  11) = (  -0.5411915   0.2332464   0.2939406  )
        12        Zn     tau(  12) = (  -0.6529362   0.6925964   0.2939406  )
        13        Zn     tau(  13) = (  -0.9294469   0.1387967   0.4795873  )
        14        Zn     tau(  14) = (  -1.0411915   0.5981467   0.4795873  )
        15        Zn     tau(  15) = (  -1.3177023   0.0443470   0.6652340  )
        16        Zn     tau(  16) = (  -1.4294469   0.5036970   0.6652340  )
        17        Zn     tau(  17) = (   0.4029361   0.0980210   0.1082939  )
        18        Zn     tau(  18) = (   0.2911915   0.5573710   0.1082939  )
        19        Zn     tau(  19) = (   0.0146808   0.0035714   0.2939406  )
        20        Zn     tau(  20) = (  -0.0970639   0.4629214   0.2939406  )
        21        Zn     tau(  21) = (  -0.3735746  -0.0908783   0.4795873  )
        22        Zn     tau(  22) = (  -0.4853192   0.3684717   0.4795873  )
        23        Zn     tau(  23) = (  -0.7618300  -0.1853280   0.6652340  )
        24        Zn     tau(  24) = (  -0.8735746   0.2740220   0.6652340  )
        25        Zn     tau(  25) = (   0.3470638   0.3276960   0.1082939  )
        26        Zn     tau(  26) = (   0.2353192   0.7870460   0.1082939  )
        27        Zn     tau(  27) = (  -0.0411915   0.2332464   0.2939406  )
        28        Zn     tau(  28) = (  -0.1529362   0.6925964   0.2939406  )
        29        Zn     tau(  29) = (  -0.4294469   0.1387967   0.4795873  )
        30        Zn     tau(  30) = (  -0.5411915   0.5981467   0.4795873  )
        31        Zn     tau(  31) = (  -0.8177023   0.0443470   0.6652340  )
        32        Zn     tau(  32) = (  -0.9294469   0.5036970   0.6652340  )
        33        Zn     tau(  33) = (   0.1529362   0.0372043   0.0773528  )
        34        Zn     tau(  34) = (   0.0411915   0.4965543   0.0773528  )
        35        Zn     tau(  35) = (  -0.2353192  -0.0572454   0.2629995  )
        36        Zn     tau(  36) = (  -0.3470638   0.4021046   0.2629995  )
        37        Zn     tau(  37) = (  -0.6235746  -0.1516950   0.4486462  )
        38        Zn     tau(  38) = (  -0.7353192   0.3076550   0.4486462  )
        39        Zn     tau(  39) = (  -1.0118299  -0.2461447   0.6342929  )
        40        Zn     tau(  40) = (  -1.1235746   0.2132053   0.6342929  )
        41        Zn     tau(  41) = (   0.0970639   0.2668793   0.0773528  )
        42        Zn     tau(  42) = (  -0.0146808   0.7262293   0.0773528  )
        43        Zn     tau(  43) = (  -0.2911915   0.1724296   0.2629995  )
        44        Zn     tau(  44) = (  -0.4029361   0.6317796   0.2629995  )
        45        Zn     tau(  45) = (  -0.6794469   0.0779800   0.4486462  )
        46        Zn     tau(  46) = (  -0.7911915   0.5373300   0.4486462  )
        47        Zn     tau(  47) = (  -1.0677023  -0.0164697   0.6342929  )
        48        Zn     tau(  48) = (  -1.1794469   0.4428803   0.6342929  )
        49        Zn     tau(  49) = (   0.6529362   0.0372043   0.0773528  )
        50        Zn     tau(  50) = (   0.5411915   0.4965543   0.0773528  )
        51        Zn     tau(  51) = (   0.2646808  -0.0572454   0.2629995  )
        52        Zn     tau(  52) = (   0.1529362   0.4021046   0.2629995  )
        53        Zn     tau(  53) = (  -0.1235746  -0.1516950   0.4486462  )
        54        Zn     tau(  54) = (  -0.2353192   0.3076550   0.4486462  )
        55        Zn     tau(  55) = (  -0.5118299  -0.2461447   0.6342929  )
        56        Zn     tau(  56) = (  -0.6235746   0.2132053   0.6342929  )
        57        Zn     tau(  57) = (   0.5970639   0.2668793   0.0773528  )
        58        Zn     tau(  58) = (   0.4853192   0.7262293   0.0773528  )
        59        Zn     tau(  59) = (   0.2088085   0.1724296   0.2629995  )
        60        Zn     tau(  60) = (   0.0970639   0.6317796   0.2629995  )
        61        Zn     tau(  61) = (  -0.1794469   0.0779800   0.4486462  )
        62        Zn     tau(  62) = (  -0.2911915   0.5373300   0.4486462  )
        63        Zn     tau(  63) = (  -0.5677023  -0.0164697   0.6342929  )
        64        Zn     tau(  64) = (  -0.6794469   0.4428803   0.6342929  )

   Crystallographic axes

     site n.     atom                  positions (cryst. coord.)
         1        Zn     tau(   1) = (  0.1666667  0.1666667  0.0539212  )
         2        Zn     tau(   2) = (  0.1666667  0.6666667  0.0539212  )
         3        Zn     tau(   3) = (  0.1666667  0.1666667  0.1463574  )
         4        Zn     tau(   4) = (  0.1666667  0.6666667  0.1463574  )
         5        Zn     tau(   5) = (  0.1666667  0.1666667  0.2387937  )
         6        Zn     tau(   6) = (  0.1666667  0.6666667  0.2387937  )
         7        Zn     tau(   7) = (  0.1666667  0.1666667  0.3312300  )
         8        Zn     tau(   8) = (  0.1666667  0.6666667  0.3312300  )
         9        Zn     tau(   9) = (  0.1666667  0.4166667  0.0539212  )
        10        Zn     tau(  10) = (  0.1666667  0.9166667  0.0539212  )
        11        Zn     tau(  11) = (  0.1666667  0.4166667  0.1463574  )
        12        Zn     tau(  12) = (  0.1666667  0.9166667  0.1463574  )
        13        Zn     tau(  13) = (  0.1666667  0.4166667  0.2387937  )
        14        Zn     tau(  14) = (  0.1666667  0.9166667  0.2387937  )
        15        Zn     tau(  15) = (  0.1666667  0.4166667  0.3312300  )
        16        Zn     tau(  16) = (  0.1666667  0.9166667  0.3312300  )
        17        Zn     tau(  17) = (  0.6666667  0.1666667  0.0539212  )
        18        Zn     tau(  18) = (  0.6666667  0.6666667  0.0539212  )
        19        Zn     tau(  19) = (  0.6666667  0.1666667  0.1463574  )
        20        Zn     tau(  20) = (  0.6666667  0.6666667  0.1463574  )
        21        Zn     tau(  21) = (  0.6666667  0.1666667  0.2387937  )
        22        Zn     tau(  22) = (  0.6666667  0.6666667  0.2387937  )
        23        Zn     tau(  23) = (  0.6666667  0.1666667  0.3312300  )
        24        Zn     tau(  24) = (  0.6666667  0.6666667  0.3312300  )
        25        Zn     tau(  25) = (  0.6666667  0.4166667  0.0539212  )
        26        Zn     tau(  26) = (  0.6666667  0.9166667  0.0539212  )
        27        Zn     tau(  27) = (  0.6666667  0.4166667  0.1463574  )
        28        Zn     tau(  28) = (  0.6666667  0.9166667  0.1463574  )
        29        Zn     tau(  29) = (  0.6666667  0.4166667  0.2387937  )
        30        Zn     tau(  30) = (  0.6666667  0.9166667  0.2387937  )
        31        Zn     tau(  31) = (  0.6666667  0.4166667  0.3312300  )
        32        Zn     tau(  32) = (  0.6666667  0.9166667  0.3312300  )
        33        Zn     tau(  33) = (  0.3333333  0.0833333  0.0385151  )
        34        Zn     tau(  34) = (  0.3333333  0.5833333  0.0385151  )
[...]
     atom   34 type  1   force =     0.00000000    0.00000000    0.00000000
     atom   35 type  1   force =     0.00000000    0.00000000    0.00000000
     atom   36 type  1   force =     0.00000000    0.00000000    0.00000000
     atom   37 type  1   force =     0.00000000    0.00000000    0.00000000
     atom   38 type  1   force =     0.00000000    0.00000000    0.00000000
     atom   39 type  1   force =     0.00000000    0.00000000    0.00000000
     atom   40 type  1   force =     0.00000000    0.00000000    0.00000000
     atom   41 type  1   force =     0.00000000    0.00000000    0.00000000
     atom   42 type  1   force =     0.00000000    0.00000000    0.00000000
     atom   43 type  1   force =     0.00000000    0.00000000    0.00000000
     atom   44 type  1   force =     0.00000000    0.00000000    0.00000000
     atom   45 type  1   force =     0.00000000    0.00000000    0.00000000
     atom   46 type  1   force =     0.00000000    0.00000000    0.00000000
     atom   47 type  1   force =     0.00000000    0.00000000    0.00000000
     atom   48 type  1   force =     0.00000000    0.00000000    0.00000000
     atom   49 type  1   force =     0.00000000    0.00000000    0.00000000
     atom   50 type  1   force =     0.00000000    0.00000000    0.00000000
     atom   51 type  1   force =     0.00000000    0.00000000    0.00000000
     atom   52 type  1   force =     0.00000000    0.00000000    0.00000000
     atom   53 type  1   force =     0.00000000    0.00000000    0.00000000
     atom   54 type  1   force =     0.00000000    0.00000000    0.00000000
     atom   55 type  1   force =     0.00000000    0.00000000    0.00000000
     atom   56 type  1   force =     0.00000000    0.00000000    0.00000000
     atom   57 type  1   force =     0.00000000    0.00000000    0.00000000
     atom   58 type  1   force =     0.00000000    0.00000000    0.00000000
     atom   59 type  1   force =     0.00000000    0.00000000    0.00000000
     atom   60 type  1   force =     0.00000000    0.00000000    0.00000000
     atom   61 type  1   force =     0.00000000    0.00000000    0.00000000
     atom   62 type  1   force =     0.00000000    0.00000000    0.00000000
     atom   63 type  1   force =     0.00000000    0.00000000    0.00000000
     atom   64 type  1   force =     0.00000000    0.00000000    0.00000000
     The SCF correction term to forces
     atom    1 type  1   force =    -0.00000000    0.00000000   -0.00000000
     atom    2 type  1   force =    -0.00000000   -0.00000000   -0.00000000
     atom    3 type  1   force =     0.00000000    0.00000000   -0.00000000
     atom    4 type  1   force =     0.00000000   -0.00000000   -0.00000000
     atom    5 type  1   force =     0.00002316    0.00004750    0.00009282
     atom    6 type  1   force =     0.00002918   -0.00003513    0.00007287
     atom    7 type  1   force =    -0.00005046    0.00000211    0.00002249
     atom    8 type  1   force =    -0.00004922   -0.00002649   -0.00000371
     atom    9 type  1   force =    -0.00000000   -0.00000000   -0.00000000
     atom   10 type  1   force =    -0.00000000   -0.00000000   -0.00000000
     atom   11 type  1   force =     0.00000000    0.00000000   -0.00000000
     atom   12 type  1   force =     0.00000000   -0.00000000   -0.00000000
     atom   13 type  1   force =     0.00002443    0.00003708    0.00008669
     atom   14 type  1   force =     0.00002805   -0.00002445    0.00007745
     atom   15 type  1   force =    -0.00004385    0.00001497    0.00000442
     atom   16 type  1   force =    -0.00005556   -0.00003878    0.00001331
     atom   17 type  1   force =     0.00000000    0.00000000   -0.00000000
     atom   18 type  1   force =     0.00000000   -0.00000000   -0.00000000
     atom   19 type  1   force =    -0.00000000    0.00000000    0.00000000
     atom   20 type  1   force =    -0.00000000   -0.00000000    0.00000000
     atom   21 type  1   force =    -0.00005382    0.00002028    0.00003763
     atom   22 type  1   force =    -0.00005948   -0.00004782    0.00001473
     atom   23 type  1   force =     0.00002776    0.00002431    0.00003256
     atom   24 type  1   force =     0.00002751   -0.00001024    0.00000434
     atom   25 type  1   force =     0.00000000    0.00000000   -0.00000000
     atom   26 type  1   force =     0.00000000    0.00000000   -0.00000000
     atom   27 type  1   force =    -0.00000000    0.00000000    0.00000000
     atom   28 type  1   force =    -0.00000000   -0.00000000    0.00000000
     atom   29 type  1   force =    -0.00005472    0.00001673    0.00002268
     atom   30 type  1   force =    -0.00005836   -0.00004478    0.00002994
     atom   31 type  1   force =     0.00002128    0.00004187    0.00001595
     atom   32 type  1   force =     0.00003354   -0.00002748    0.00002140
     atom   33 type  1   force =     0.00000000    0.00000000   -0.00000000
     atom   34 type  1   force =     0.00000000   -0.00000000   -0.00000000
     atom   35 type  1   force =    -0.00000000    0.00000000   -0.00000000
     atom   36 type  1   force =    -0.00000000   -0.00000000   -0.00000000
     atom   37 type  1   force =     0.00006466    0.00003360    0.00006674
     atom   38 type  1   force =     0.00006323   -0.00000342    0.00005568
     atom   39 type  1   force =     0.00001338    0.00000978    0.00004443
     atom   40 type  1   force =     0.00002486   -0.00000067    0.00001638
     atom   41 type  1   force =     0.00000000    0.00000000   -0.00000000
     atom   42 type  1   force =     0.00000000   -0.00000000   -0.00000000
     atom   43 type  1   force =    -0.00000000    0.00000000   -0.00000000
     atom   44 type  1   force =    -0.00000000   -0.00000000   -0.00000000
     atom   45 type  1   force =     0.00006118    0.00006244    0.00006667
     atom   46 type  1   force =     0.00006662   -0.00003183    0.00005639
     atom   47 type  1   force =     0.00001912    0.00004351    0.00003332
     atom   48 type  1   force =     0.00001944   -0.00003441    0.00002742
     atom   49 type  1   force =    -0.00000000    0.00000000   -0.00000000
     atom   50 type  1   force =    -0.00000000   -0.00000000   -0.00000000
     atom   51 type  1   force =     0.00000000    0.00000000    0.00000000
     atom   52 type  1   force =     0.00000000   -0.00000000   -0.00000000
     atom   53 type  1   force =    -0.00004625    0.00001136    0.00003968
     atom   54 type  1   force =    -0.00004404   -0.00003407    0.00001401
     atom   55 type  1   force =     0.00001353   -0.00000193    0.00000773
     atom   56 type  1   force =     0.00000322    0.00000607   -0.00001511
     atom   57 type  1   force =    -0.00000000    0.00000000   -0.00000000
     atom   58 type  1   force =    -0.00000000   -0.00000000   -0.00000000
     atom   59 type  1   force =     0.00000000    0.00000000    0.00000000
     atom   60 type  1   force =     0.00000000   -0.00000000   -0.00000000
     atom   61 type  1   force =    -0.00004157    0.00003352    0.00003636
     atom   62 type  1   force =    -0.00004892   -0.00005595    0.00001727
     atom   63 type  1   force =     0.00000845    0.00003764   -0.00000022
     atom   64 type  1   force =     0.00000844   -0.00003300   -0.00000732

     Total force =     0.002152     Total SCF correction =     0.000380
     SCF correction compared to forces is large: reduce conv_thr to get better values

     Computing stress (Cartesian axis) and pressure

          total   stress  (Ry/bohr**3)                   (kbar)     P=     -281.58
  -0.00198820  -0.00002330   0.00002702         -292.47       -3.43        3.97
  -0.00002330  -0.00192021   0.00000427           -3.43     -282.47        0.63
   0.00002702   0.00000427  -0.00183404            3.97        0.63     -269.80

     kinetic stress (kbar)  15082.56      6.25     -5.86
                                6.25  15053.69     -1.33
                               -5.86     -1.33  15108.23

     local   stress (kbar)**********   3424.25  -2315.86
                             3424.25**********   -559.00
                            -2315.86   -559.001207901.91

     nonloc. stress (kbar)  -1861.25     -6.81      4.48
                               -6.81  -1835.02      0.89
                                4.48      0.89  -1870.05

     hartree stress (kbar) 630437.70  -1471.35    970.73
                            -1471.35 636127.22    234.37
                              970.73    234.37-562371.07

     exc-cor stress (kbar)  -7542.39     -0.91      0.64
                               -0.91  -7538.92      0.16
                                0.64      0.16  -7545.64

     corecor stress (kbar)      0.00      0.00      0.00
                                0.00      0.00      0.00
                                0.00      0.00      0.00

     ewald   stress (kbar) 557232.83  -1954.86   1349.83
                            -1954.86 564795.07    325.54
                             1349.83    325.54-651493.18

     hubbard stress (kbar)      0.00      0.00      0.00
                                0.00      0.00      0.00
                                0.00      0.00      0.00

     DFT-D   stress (kbar)      0.00      0.00      0.00
                                0.00      0.00      0.00
                                0.00      0.00      0.00

     XDM     stress (kbar)      0.00      0.00      0.00
                                0.00      0.00      0.00
                                0.00      0.00      0.00

     dft-nl  stress (kbar)      0.00      0.00      0.00
                                0.00      0.00      0.00
                                0.00      0.00      0.00

     TS-vdW  stress (kbar)      0.00      0.00      0.00
                                0.00      0.00      0.00
                                0.00      0.00      0.00

     MDB     stress (kbar)      0.00      0.00      0.00
                                0.00      0.00      0.00
                                0.00      0.00      0.00

     3D-RISM stress (kbar)      0.00      0.00      0.00
                                0.00      0.00      0.00
                                0.00      0.00      0.00

     Energy error            =      7.9E-06 Ry
     Gradient error          =      4.6E-04 Ry/Bohr

     bfgs converged in  26 scf cycles and  25 bfgs steps
     (criteria: energy <  1.0E-05 Ry, force <  5.0E-04 Ry/Bohr)

     End of BFGS Geometry Optimization

     Final energy             =  -29534.9999739547 Ry

     File ./tmp/Zn101_2x4x4_relax_ecutrho250_ecutwfc25.bfgs deleted, as requested
Begin final coordinates

ATOMIC_POSITIONS (angstrom)
Zn              -1.0735556040        1.0841422490        1.1977635440    0   0   0
Zn              -2.3094850350        6.1646922450        1.1977635440    0   0   0
Zn              -5.3677775260        0.0395003770        3.2510723350    0   0   0
Zn              -6.6037069570        5.1200503720        3.2510723350    0   0   0
Zn              -9.7089195560       -1.0153197644        5.5574001830
Zn             -10.9444612646        4.0651762061        5.5568475472
Zn             -13.7214416351       -1.9892533076        7.6431184026
Zn             -14.9564813252        3.0909243841        7.6428892457
Zn              -1.6915203190        3.6244172470        1.1977635440    0   0   0
Zn              -2.9274497510        8.7049672430        1.1977635440    0   0   0
Zn              -5.9857422410        2.5797753750        3.2510723350    0   0   0
Zn              -7.2216716720        7.6603253700        3.2510723350    0   0   0
Zn             -10.3264176447        1.5250682890        5.5573868096
Zn             -11.5628996562        6.6053331603        5.5568587833
Zn             -14.3383823334        0.5510568695        7.6424277911
Zn             -15.5754934006        5.6311441713        7.6435787065
Zn               4.4565957630        1.0841422490        1.1977635440    0   0   0
Zn               3.2206663320        6.1646922450        1.1977635440    0   0   0
Zn               0.1623738410        0.0395003770        3.2510723350    0   0   0
Zn              -1.0735555900        5.1200503720        3.2510723350    0   0   0
Zn              -4.1792282939       -1.0153627723        5.5588462762
Zn              -5.4152205082        4.0648737576        5.5585311673
Zn              -8.1948587992       -1.9906576436        7.6440654325
Zn              -9.4313594711        3.0902266224        7.6447699490
Zn               3.8386310480        3.6244172470        1.1977635440    0   0   0
Zn               2.6027016170        8.7049672430        1.1977635440    0   0   0
Zn              -0.4555908740        2.5797753750        3.2510723350    0   0   0
Zn              -1.6915203050        7.6603253700        3.2510723350    0   0   0
Zn              -4.7972853979        1.5244358199        5.5588288137
Zn              -6.0330863402        6.6056334593        5.5585535707
Zn              -8.8134310459        0.5494463339        7.6447235255
Zn             -10.0487061162        5.6306716810        7.6441212823
Zn               1.6915203330        0.4114908770        0.8555452480    0   0   0
Zn               0.4555909020        5.4920408730        0.8555452480    0   0   0
Zn              -2.6027015890       -0.6331509950        2.9088540390    0   0   0
Zn              -3.8386310200        4.4473990010        2.9088540390    0   0   0
Zn              -6.9469216156       -1.6917672198        5.0366214099
Zn              -8.1827395462        3.3890769520        5.0367887488
Zn             -11.1182059302       -2.7018510587        7.3039457638
Zn             -12.3529337251        2.3791608544        7.3040019961
Zn               1.0735556170        2.9517658750        0.8555452480    0   0   0
Zn              -0.1623738140        8.0323158710        0.8555452480    0   0   0
Zn              -3.2206663040        1.9071240030        2.9088540390    0   0   0
Zn              -4.4565957350        6.9876739990        2.9088540390    0   0   0
Zn              -7.5649765968        0.8484405585        5.0367436921
Zn              -8.8005772481        5.9294148523        5.0366560249
Zn             -11.7355211386       -0.1613220661        7.3041997017
Zn             -12.9715639520        4.9192102454        7.3037498091
Zn               7.2216717000        0.4114908770        0.8555452480    0   0   0
Zn               5.9857422690        5.4920408730        0.8555452480    0   0   0
Zn               2.9274497780       -0.6331509950        2.9088540390    0   0   0
Zn               1.6915203470        4.4473990010        2.9088540390    0   0   0
Zn              -1.4162111914       -1.6911008414        5.0365779004
Zn              -2.6518817476        3.3887563827        5.0360840250
Zn              -5.5909851415       -2.7022171332        7.3034669440
Zn              -6.8276480205        2.3775479218        7.3037436654
Zn               6.6037069850        2.9517658750        0.8555452480    0   0   0
Zn               5.3677775540        8.0323158710        0.8555452480    0   0   0
Zn               2.3094850630        1.9071240030        2.9088540390    0   0   0
Zn               1.0735556320        6.9876739990        2.9088540390    0   0   0
Zn              -2.0337195757        0.8489305936        5.0365785276
Zn              -3.2702789950        5.9292477955        5.0360658650
Zn              -6.2095605799       -0.1625612169        7.3031397682
Zn              -7.4450153871        4.9184572000        7.3040810687
End final coordinates

     Writing all to output data dir ./tmp/Zn101_2x4x4_relax_ecutrho250_ecutwfc25.save/ :
     XML data file, charge density, pseudopotentials, collected wavefunctions

     General routines

     Parallel routines

   This run was terminated on:  17: 7:34  18Mar2025

   JOB DONE.
Note: The following floating-point exceptions are signalling: IEEE_DENORMAL
Note: The following floating-point exceptions are signalling: IEEE_DENORMAL
Note: The following floating-point exceptions are signalling: IEEE_DENORMAL
Note: The following floating-point exceptions are signalling: IEEE_DENORMAL
Note: The following floating-point exceptions are signalling: IEEE_DENORMAL
Note: The following floating-point exceptions are signalling: IEEE_DENORMAL
Note: The following floating-point exceptions are signalling: IEEE_DENORMAL
Note: The following floating-point exceptions are signalling: IEEE_DENORMAL
Note: The following floating-point exceptions are signalling: IEEE_DENORMAL
Note: The following floating-point exceptions are signalling: IEEE_DENORMAL
Note: The following floating-point exceptions are signalling: IEEE_DENORMAL
Note: The following floating-point exceptions are signalling: IEEE_DENORMAL