     Program PWSCF v.7.3.1 starts on 31Mar2025 at  0:46:15

     Waiting for input...
     Reading input from standard input
Warning: card &CELL ignored
Warning: card   CELL_DOFREE = 'ALL' ignored
Warning: card / ignored

     Current dimensions of program PWSCF are:
     Max number of different atomic species (ntypx) = 10
     Max number of k-points (npk) =  40000
     Max angular momentum in pseudopotentials (lmaxx) =  4
     Message from routine input:
     WARNING: "startingwfc" set to atomic+random may spoil restart
     Message from routine input:
     WARNING: "startingpot" set to atomic may spoil restart
     file C.pbe-n-kjpaw_psl.1.0.0.UPF: wavefunction(s)  2S 2P renormalized

     R & G space division:  proc/nbgrp/npool/nimage =      34
     Subspace diagonalization in iterative solution of the eigenvalue problem:
     one sub-group per band group will be used

     Using Slab Decomposition

     bravais-lattice index     =            0
     lattice parameter (alat)  =      19.7617  a.u.
     unit-cell volume          =   15176.5939 (a.u.)^3
     number of atoms/cell      =           63
     number of atomic types    =            4
     number of electrons       =      1004.00
     number of Kohn-Sham states=          602
     kinetic-energy cutoff     =      40.0000  Ry
     charge density cutoff     =     280.0000  Ry
     scf convergence threshold =      1.0E-06
     mixing beta               =       0.4000
     number of iterations used =            8  plain     mixing
     energy convergence thresh.=      1.0E-05
     force convergence thresh. =      5.0E-04
     Exchange-correlation= PBE
                           (   1   4   3   4   0   0   0)
     nstep                     =          100

     celldm(1)=  19.761696  celldm(2)=   0.000000  celldm(3)=   0.000000
     celldm(4)=   0.000000  celldm(5)=   0.000000  celldm(6)=   0.000000

     crystal axes: (cart. coord. in units of alat)
               a(1) = (   1.000000   0.000000   0.000000 )
               a(2) = (  -0.500000   0.866025   0.000000 )
               a(3) = (   0.000000   0.000000   2.270759 )

     reciprocal axes: (cart. coord. in units 2 pi/alat)
               b(1) = (  1.000000  0.577350 -0.000000 )
               b(2) = (  0.000000  1.154701  0.000000 )
               b(3) = (  0.000000 -0.000000  0.440381 )

     PseudoPot. # 1 for Zn read from file:
     /home/ys/qepseudo/SSSP_1.3.0_PBE_efficiency/Zn_pbe_v1.uspp.F.UPF
     MD5 check sum: df62231357ef9e81f77b2b3087fa5675
     Pseudo is Ultrasoft, Zval = 20.0
     Generated by new atomic code, or converted to UPF format
     Using radial grid of  943 points,  6 beta functions with:
                l(1) =   0
                l(2) =   0
                l(3) =   1
                l(4) =   1
                l(5) =   2
                l(6) =   2
     Q(r) pseudized with  8 coefficients,  rinner =    1.100   1.100   1.100
                                                       1.100   1.100

     PseudoPot. # 2 for N  read from file:
     /home/ys/qepseudo/SSSP_1.3.0_PBE_efficiency/N.pbe-n-radius_5.UPF
     MD5 check sum: 16739722b17309cd8fe442a2ace49922
     Pseudo is Ultrasoft + core correction, Zval =  5.0
     Generated using "atomic" code by A. Dal Corso  v.5.1
     Using radial grid of 1085 points,  4 beta functions with:
                l(1) =   0
                l(2) =   0
                l(3) =   1
                l(4) =   1
     Q(r) pseudized with 0 coefficients

     PseudoPot. # 3 for C  read from file:
     /home/ys/qepseudo/SSSP_1.3.0_PBE_efficiency/C.pbe-n-kjpaw_psl.1.0.0.UPF
     MD5 check sum: 5d2aebdfa2cae82b50a7e79e9516da0f
     Pseudo is Projector augmented-wave + core cor, Zval =  4.0
     Generated using "atomic" code by A. Dal Corso  v.5.1
     Shape of augmentation charge: PSQ
     Using radial grid of 1073 points,  4 beta functions with:
                l(1) =   0
                l(2) =   0
                l(3) =   1
                l(4) =   1
     Q(r) pseudized with 0 coefficients

     PseudoPot. # 4 for H  read from file:
     /home/ys/qepseudo/SSSP_1.3.0_PBE_efficiency/H.pbe-rrkjus_psl.1.0.0.UPF
     MD5 check sum: f52b6d4d1c606e5624b1dc7b2218f220
     Pseudo is Ultrasoft, Zval =  1.0
     Generated using "atomic" code by A. Dal Corso  v.5.1
     Using radial grid of  929 points,  2 beta functions with:
                l(1) =   0
                l(2) =   0
     Q(r) pseudized with 0 coefficients

     atomic species   valence    mass     pseudopotential
     Zn               20.00    65.38000     Zn( 1.00)
     N                 5.00    14.00674     N ( 1.00)
     C                 4.00    12.01070     C ( 1.00)
     H                 1.00     1.00794     H ( 1.00)

     No symmetry found

                                    s                        frac. trans.

      isym =  1     identity

 cryst.   s( 1) = (     1          0          0      )
                  (     0          1          0      )
                  (     0          0          1      )

 cart.    s( 1) = (  1.0000000  0.0000000  0.0000000 )
                  (  0.0000000  1.0000000  0.0000000 )
                  (  0.0000000  0.0000000  1.0000000 )

   Cartesian axes

     site n.     atom                  positions (alat units)
         1        Zn     tau(   1) = (   0.0000000   0.1443375   0.1164998  )
         2        Zn     tau(   2) = (   0.5000000   0.1443375   0.1164998  )
         3        Zn     tau(   3) = (   0.0000668   0.1446344   0.5926182  )
         4        Zn     tau(   4) = (   0.4999153   0.1445827   0.5927848  )
         5        Zn     tau(   5) = (  -0.1250000   0.3608439   0.1164998  )
         6        Zn     tau(   6) = (   0.3750000   0.3608439   0.1164998  )
         7        Zn     tau(   7) = (  -0.1251770   0.3609676   0.5931884  )
         8        Zn     tau(   8) = (   0.3746806   0.3610966   0.5842804  )
         9        Zn     tau(   9) = (  -0.2500000   0.5773502   0.1164998  )
        10        Zn     tau(  10) = (   0.2500000   0.5773502   0.1164998  )
        11        Zn     tau(  11) = (  -0.2501432   0.5773866   0.5930455  )
        12        Zn     tau(  12) = (   0.2498241   0.5776268   0.5928374  )
        13        Zn     tau(  13) = (  -0.3750000   0.7938567   0.1164998  )
        14        Zn     tau(  14) = (   0.1250000   0.7938567   0.1164998  )
        15        Zn     tau(  15) = (  -0.3749054   0.7940581   0.5919911  )
        16        Zn     tau(  16) = (   0.1248834   0.7940737   0.5931316  )
        17        Zn     tau(  17) = (   0.2500000   0.1443375   0.1164998  )
        18        Zn     tau(  18) = (   0.7500000   0.1443375   0.1164998  )
        19        Zn     tau(  19) = (   0.2499640   0.1443799   0.5911997  )
        20        Zn     tau(  20) = (   0.7495477   0.1447067   0.5932616  )
        21        Zn     tau(  21) = (   0.1250000   0.3608439   0.1164998  )
        22        Zn     tau(  22) = (   0.6250000   0.3608439   0.1164998  )
        23        Zn     tau(  23) = (   0.1247912   0.3610407   0.5926649  )
        24        Zn     tau(  24) = (   0.6247822   0.3609742   0.5928148  )
        25        Zn     tau(  25) = (   0.0000000   0.5773502   0.1164998  )
        26        Zn     tau(  26) = (   0.5000000   0.5773502   0.1164998  )
        27        Zn     tau(  27) = (   0.0001926   0.5774578   0.5931663  )
        28        Zn     tau(  28) = (   0.5000439   0.5775805   0.5908255  )
        29        Zn     tau(  29) = (  -0.1250000   0.7938567   0.1164998  )
        30        Zn     tau(  30) = (   0.3750000   0.7938567   0.1164998  )
        31        Zn     tau(  31) = (  -0.1249481   0.7941994   0.5928670  )
        32        Zn     tau(  32) = (   0.3748419   0.7938773   0.5926988  )
        33        Zn     tau(  33) = (   0.1250492   0.0720662   0.3547634  )
        34        Zn     tau(  34) = (   0.6248991   0.0723009   0.3538995  )
        35        Zn     tau(  35) = (  -0.0001483   0.2888231   0.3540379  )
        36        Zn     tau(  36) = (   0.5005036   0.2883462   0.3555413  )
        37        Zn     tau(  37) = (  -0.1249548   0.5052626   0.3539839  )
        38        Zn     tau(  38) = (   0.3748520   0.5056893   0.3552779  )
        39        Zn     tau(  39) = (  -0.2500218   0.7219599   0.3544415  )
        40        Zn     tau(  40) = (   0.2497364   0.7219048   0.3538865  )
        41        Zn     tau(  41) = (   0.3750528   0.0720765   0.3549001  )
        42        Zn     tau(  42) = (   0.8749035   0.0722922   0.3541211  )
        43        Zn     tau(  43) = (   0.2495956   0.2885054   0.3553563  )
        44        Zn     tau(  44) = (   0.7498887   0.2886752   0.3538997  )
        45        Zn     tau(  45) = (   0.1247664   0.5054833   0.3542024  )
        46        Zn     tau(  46) = (   0.6251826   0.5052754   0.3546328  )
        47        Zn     tau(  47) = (   0.0000755   0.7218715   0.3540203  )
        48        Zn     tau(  48) = (   0.5001391   0.7219956   0.3546123  )
        49        C      tau(  49) = (   0.4059486   0.3678990   1.4445907  )
        50        C      tau(  50) = (   0.4023397   0.3669360   1.3083749  )
        51        C      tau(  51) = (   0.4606482   0.4656077   1.2372691  )
        52        C      tau(  52) = (   0.3411043   0.2668435   1.2419373  )
        53        C      tau(  53) = (   0.4581811   0.4642053   1.1046640  )
        54        C      tau(  54) = (   0.3384351   0.2654043   1.1093847  )
        55        C      tau(  55) = (   0.3972663   0.3638099   1.0377973  )
        56        N      tau(  56) = (   0.4089408   0.3680884   1.5562638  )
        57        N      tau(  57) = (   0.3958890   0.3614826   0.9068891  )
        58        H      tau(  58) = (   0.3520660   0.2903630   0.8580107  )
        59        H      tau(  59) = (   0.4370148   0.4317761   0.8546029  )
        60        H      tau(  60) = (   0.2957652   0.1899799   1.2960323  )
        61        H      tau(  61) = (   0.5083852   0.5432495   1.2877716  )
        62        H      tau(  62) = (   0.2908310   0.1871155   1.0592726  )
        63        H      tau(  63) = (   0.5040107   0.5412774   1.0509912  )

     DFT-D3 Dispersion Correction (3-body terms):
       Reference C6 values for interpolation:

         atom   Coordination number   C6
         H          0.912             6.05
         H          0.000            15.18
         C          0.000            98.23
         C          0.987            86.49
         C          1.998            58.72
         C          2.999            51.56
         C          3.984            36.41
         N          0.000            50.54
         N          0.994            44.25
         N          2.014            39.35
         N          2.990            31.16
         Zn         0.000           681.04
         Zn         1.942           306.91

       Values used:

         atom   Coordination number  R0_AB[au]  C6      C8
         Zn         6.727            3.053    306.91  23930.67
         Zn         6.715            3.053    306.91  23930.67
         Zn         6.703            3.053    306.91  23930.67
[...]
     atom   16 type  1   force =    -0.00000068    0.00000396    0.00000195
     atom   17 type  1   force =     0.00000000    0.00000000    0.00000000
     atom   18 type  1   force =    -0.00000000    0.00000000    0.00000000
     atom   19 type  1   force =     0.00001702    0.00002580   -0.00000855
     atom   20 type  1   force =    -0.00000421    0.00000222    0.00000693
     atom   21 type  1   force =     0.00000000   -0.00000000    0.00000000
     atom   22 type  1   force =    -0.00000000    0.00000000    0.00000000
     atom   23 type  1   force =     0.00003140   -0.00000207    0.00000064
     atom   24 type  1   force =    -0.00002548    0.00000575   -0.00000488
     atom   25 type  1   force =     0.00000000   -0.00000000    0.00000000
     atom   26 type  1   force =    -0.00000000   -0.00000000    0.00000000
     atom   27 type  1   force =    -0.00000178   -0.00000094    0.00000620
     atom   28 type  1   force =    -0.00001167   -0.00002443   -0.00000372
     atom   29 type  1   force =    -0.00000000    0.00000000    0.00000000
     atom   30 type  1   force =     0.00000000   -0.00000000    0.00000000
     atom   31 type  1   force =    -0.00000204    0.00000520    0.00000358
     atom   32 type  1   force =     0.00000048   -0.00000973    0.00000953
     atom   33 type  1   force =     0.00001107    0.00001560    0.00000757
     atom   34 type  1   force =    -0.00001082    0.00000586    0.00000572
     atom   35 type  1   force =     0.00001207   -0.00000006    0.00000575
     atom   36 type  1   force =    -0.00002812    0.00001799    0.00000961
     atom   37 type  1   force =    -0.00000948    0.00000414   -0.00000336
     atom   38 type  1   force =     0.00000882   -0.00002374    0.00000698
     atom   39 type  1   force =     0.00000299   -0.00000827   -0.00000082
     atom   40 type  1   force =     0.00001020   -0.00000990    0.00000610
     atom   41 type  1   force =     0.00000243    0.00002786    0.00001041
     atom   42 type  1   force =    -0.00000430   -0.00000086   -0.00000676
     atom   43 type  1   force =     0.00002587    0.00000929    0.00000592
     atom   44 type  1   force =    -0.00001271    0.00000934    0.00000713
     atom   45 type  1   force =     0.00002461   -0.00001495    0.00001061
     atom   46 type  1   force =    -0.00002233   -0.00001008    0.00001113
     atom   47 type  1   force =    -0.00000677    0.00000401   -0.00000189
     atom   48 type  1   force =    -0.00000833   -0.00002472    0.00000654
     atom   49 type  3   force =    -0.00000312    0.00000131    0.00000280
     atom   50 type  3   force =    -0.00000343   -0.00000104   -0.00000001
     atom   51 type  3   force =    -0.00000197    0.00000128   -0.00000525
     atom   52 type  3   force =     0.00000227    0.00000021   -0.00000783
     atom   53 type  3   force =    -0.00000356   -0.00000077   -0.00001271
     atom   54 type  3   force =     0.00000319    0.00000067   -0.00000998
     atom   55 type  3   force =    -0.00000246   -0.00000539   -0.00000352
     atom   56 type  2   force =    -0.00000287    0.00000578    0.00000688
     atom   57 type  2   force =     0.00000631   -0.00001604    0.00000486
     atom   58 type  4   force =     0.00000145    0.00000005    0.00000114
     atom   59 type  4   force =     0.00000056   -0.00000131    0.00000010
     atom   60 type  4   force =     0.00000032   -0.00000018   -0.00000103
     atom   61 type  4   force =     0.00000033    0.00000110   -0.00000028
     atom   62 type  4   force =     0.00000171    0.00000175   -0.00000079
     atom   63 type  4   force =    -0.00000116   -0.00000142   -0.00000065

     DFT-D3 dispersion contribution to forces:
     atom    1 type  1   force =    -0.00000631   -0.00000738    0.00261589
     atom    2 type  1   force =    -0.00000341    0.00001500    0.00265251
     atom    3 type  1   force =     0.00010419    0.00004500   -0.00252962
     atom    4 type  1   force =    -0.00030754    0.00051075   -0.00173921
     atom    5 type  1   force =     0.00000144   -0.00000390    0.00261736
     atom    6 type  1   force =    -0.00000197    0.00000081    0.00270409
     atom    7 type  1   force =    -0.00002737    0.00000575   -0.00258163
     atom    8 type  1   force =     0.00009030    0.00000336   -0.00134073
     atom    9 type  1   force =    -0.00000937   -0.00000119    0.00263610
     atom   10 type  1   force =     0.00001814   -0.00001153    0.00266067
     atom   11 type  1   force =    -0.00015713   -0.00007441   -0.00244061
     atom   12 type  1   force =     0.00035620   -0.00044832   -0.00181998
     atom   13 type  1   force =    -0.00000097   -0.00000068    0.00262820
     atom   14 type  1   force =     0.00000302    0.00000007    0.00261858
     atom   15 type  1   force =    -0.00000392   -0.00002134   -0.00251030
     atom   16 type  1   force =    -0.00000773    0.00001018   -0.00258755
     atom   17 type  1   force =     0.00000386    0.00002123    0.00266046
     atom   18 type  1   force =     0.00000725   -0.00000468    0.00261680
     atom   19 type  1   force =     0.00029521    0.00041636   -0.00183025
     atom   20 type  1   force =    -0.00010939    0.00006638   -0.00252290
     atom   21 type  1   force =     0.00001810   -0.00001036    0.00265971
     atom   22 type  1   force =    -0.00001598   -0.00000434    0.00265401
     atom   23 type  1   force =     0.00054359   -0.00004379   -0.00187888
     atom   24 type  1   force =    -0.00060503    0.00005801   -0.00168130
     atom   25 type  1   force =     0.00000882   -0.00000629    0.00262255
     atom   26 type  1   force =    -0.00001629   -0.00001530    0.00266158
     atom   27 type  1   force =     0.00006161   -0.00003326   -0.00256910
     atom   28 type  1   force =    -0.00021349   -0.00048479   -0.00174403
     atom   29 type  1   force =    -0.00000418    0.00000631    0.00263386
     atom   30 type  1   force =     0.00000315    0.00000720    0.00261708
     atom   31 type  1   force =    -0.00000929    0.00013264   -0.00249058
     atom   32 type  1   force =     0.00001924   -0.00014007   -0.00249834
     atom   33 type  1   force =     0.00001415    0.00000724    0.00005592
     atom   34 type  1   force =    -0.00000724    0.00000806    0.00002613
     atom   35 type  1   force =     0.00000334    0.00000409    0.00002421
     atom   36 type  1   force =    -0.00001655    0.00000604    0.00011800
     atom   37 type  1   force =    -0.00000364   -0.00001054    0.00005502
     atom   38 type  1   force =     0.00001081   -0.00002546    0.00013773
     atom   39 type  1   force =     0.00000032    0.00000659    0.00001432
     atom   40 type  1   force =    -0.00000705   -0.00000053    0.00001499
     atom   41 type  1   force =    -0.00000613   -0.00006836   -0.00003739
     atom   42 type  1   force =     0.00000186   -0.00000252    0.00001534
     atom   43 type  1   force =     0.00002823    0.00000670    0.00012393
     atom   44 type  1   force =    -0.00001151    0.00000226    0.00002592
     atom   45 type  1   force =    -0.00006615    0.00003965   -0.00007059
     atom   46 type  1   force =     0.00005262    0.00003997   -0.00002776
     atom   47 type  1   force =     0.00001060    0.00000838    0.00005863
     atom   48 type  1   force =    -0.00000176   -0.00001853    0.00006796
     atom   49 type  3   force =     0.00000662    0.00000231    0.00011468
     atom   50 type  3   force =     0.00000222    0.00000479   -0.00004599
     atom   51 type  3   force =     0.00007452    0.00012332   -0.00010918
     atom   52 type  3   force =    -0.00007787   -0.00013081   -0.00009961
     atom   53 type  3   force =     0.00012066    0.00019792   -0.00026421
     atom   54 type  3   force =    -0.00011134   -0.00018848   -0.00023307
     atom   55 type  3   force =    -0.00000040   -0.00000424   -0.00093934
     atom   56 type  2   force =    -0.00001293   -0.00000436   -0.00036147
     atom   57 type  2   force =    -0.00002053   -0.00000196   -0.00189176
     atom   58 type  4   force =     0.00002314    0.00005202   -0.00191575
     atom   59 type  4   force =    -0.00004223   -0.00004259   -0.00193819
     atom   60 type  4   force =    -0.00000342   -0.00000589    0.00001654
     atom   61 type  4   force =     0.00000490    0.00000886    0.00001627
     atom   62 type  4   force =     0.00000181    0.00000197   -0.00021050
     atom   63 type  4   force =    -0.00000182   -0.00000332   -0.00023522

     Total force =     0.001571     Total SCF correction =     0.000121

     DFT-D3 dispersion Force =     0.014299

     Computing stress (Cartesian axis) and pressure

     negative rho (up, down):  3.309E-03 0.000E+00
          total   stress  (Ry/bohr**3)                   (kbar)     P=       -9.44
  -0.00009176   0.00000048   0.00000018          -13.50        0.07        0.03
   0.00000048  -0.00009123  -0.00000008            0.07      -13.42       -0.01
   0.00000018  -0.00000008  -0.00000954            0.03       -0.01       -1.40

     kinetic stress (kbar)  13008.22    -30.24     -1.05
                              -30.24  12976.10      0.19
                               -1.05      0.19  13016.70

     local   stress (kbar)**********   -819.18    -43.12
                             -819.18**********     -8.02
                              -43.12     -8.021165736.32

     nonloc. stress (kbar)  -1181.62      2.06      0.13
                                2.06  -1179.44      0.02
                                0.13      0.02  -1218.79

     hartree stress (kbar) 604144.04    309.62     16.95
                              309.62 604473.49      3.96
                               16.95      3.96-547028.05

     exc-cor stress (kbar)  -6328.00      1.47      0.06
                                1.47  -6326.43     -0.01
                                0.06     -0.01  -6333.46

     corecor stress (kbar)    -82.90     -0.43     -0.02
                               -0.43    -83.35      0.00
                               -0.02      0.00    -84.04

     ewald   stress (kbar) 545034.14    536.76     27.07
                              536.76 545604.85      3.84
                               27.07      3.84-624085.56

     hubbard stress (kbar)      0.00      0.00      0.00
                                0.00      0.00      0.00
                                0.00      0.00      0.00

     DFT-D   stress (kbar)    -10.31      0.01     -0.00
                                0.01    -10.31      0.00
                               -0.00      0.00     -4.51

     XDM     stress (kbar)      0.00      0.00      0.00
                                0.00      0.00      0.00
                                0.00      0.00      0.00

     dft-nl  stress (kbar)      0.00      0.00      0.00
                                0.00      0.00      0.00
                                0.00      0.00      0.00

     TS-vdW  stress (kbar)      0.00      0.00      0.00
                                0.00      0.00      0.00
                                0.00      0.00      0.00

     MDB     stress (kbar)      0.00      0.00      0.00
                                0.00      0.00      0.00
                                0.00      0.00      0.00

     3D-RISM stress (kbar)      0.00      0.00      0.00
                                0.00      0.00      0.00
                                0.00      0.00      0.00

     Energy error            =      9.0E-06 Ry
     Gradient error          =      4.7E-04 Ry/Bohr

     bfgs converged in  66 scf cycles and  62 bfgs steps
     (criteria: energy <  1.0E-05 Ry, force <  5.0E-04 Ry/Bohr)

     End of BFGS Geometry Optimization

     Final energy             =  -22331.5304769191 Ry

     File ./tmp/Zn002_3layer_ABN_relax.bfgs deleted, as requested
Begin final coordinates

ATOMIC_POSITIONS (angstrom)
Zn               0.0000000000        1.5094010000        1.2182900000    0   0   0
Zn               5.2287200000        1.5094010000        1.2182900000    0   0   0
Zn              -0.0001294365        1.5116752022        6.1797399235
Zn               5.2268868408        1.5132114550        6.1917379296
Zn              -1.3071800000        3.7735030000        1.2182900000    0   0   0
Zn               3.9215400000        3.7735030000        1.2182900000    0   0   0
Zn              -1.3083512393        3.7753835504        6.1768009359
Zn               3.9185408051        3.7758166775        6.0807123776
Zn              -2.6143600000        6.0376050000        1.2182900000    0   0   0
Zn               2.6143600000        6.0376050000        1.2182900000    0   0   0
Zn              -2.6162582095        6.0385473944        6.1811606259
Zn               2.6150922734        6.0381400698        6.1932251309
Zn              -3.9215400000        8.3017080000        1.2182900000    0   0   0
Zn               1.3071800000        8.3017080000        1.2182900000    0   0   0
Zn              -3.9218039330        8.3034132762        6.1770836354
Zn               1.3060649130        8.3032567821        6.1765914724
Zn               2.6143600000        1.5094010000        1.2182900000    0   0   0
Zn               7.8430800000        1.5094010000        1.2182900000    0   0   0
Zn               2.6140149536        1.5121654609        6.1765981603
Zn               7.8401453647        1.5122187526        6.1808951282
Zn               1.3071800000        3.7735030000        1.2182900000    0   0   0
Zn               6.5359000000        3.7735030000        1.2182900000    0   0   0
Zn               1.3079482652        3.7746060945        6.1907617163
Zn               6.5325928960        3.7751657636        6.1923255894
Zn               0.0000000000        6.0376050000        1.2182900000    0   0   0
Zn               5.2287200000        6.0376050000        1.2182900000    0   0   0
Zn               0.0011212803        6.0383223996        6.1801855465
Zn               5.2274374801        6.0388240278        6.1687046673
Zn              -1.3071800000        8.3017080000        1.2182900000    0   0   0
Zn               3.9215400000        8.3017080000        1.2182900000    0   0   0
Zn              -1.3079113630        8.3045559916        6.1800958198
Zn               3.9204002343        8.3024005584        6.1804052046
Zn               1.3070611136        0.7550737509        3.7035342813
Zn               6.5354130168        0.7550110277        3.7026102085
Zn              -0.0011101498        3.0201842284        3.7027524323
Zn               5.2325718705        3.0171576244        3.6897936978
Zn              -1.3073775826        5.2837036378        3.7045522497
Zn               3.9207930489        5.2882612609        3.6849539189
Zn              -2.6144813751        7.5480451751        3.7000198215
Zn               2.6130770599        7.5484763767        3.7025502122
Zn               3.9215694738        0.7543980704        3.7005299939
Zn               9.1493115328        0.7558453512        3.7011823979
Zn               2.6101078326        3.0174351805        3.6846108909
Zn               7.8430806776        3.0199692549        3.7027954198
Zn               1.3057290908        5.2847131369        3.7000023596
Zn               6.5370399486        5.2840956630        3.6997638099
Zn               0.0000766163        7.5480868063        3.7046319906
Zn               5.2288661172        7.5484800174        3.7036976561
C                4.2415230447        3.8489925286       15.1045538066
C                4.2097153019        3.8359883793       13.6811848183
C                4.8181868541        4.8668833670       12.9374982705
C                3.5707251288        2.7897864292       12.9865608242
C                4.7933827878        4.8509168589       11.5518804006
C                3.5442128935        2.7721414000       11.6011278093
C                4.1577620642        3.8010953853       10.8523811137
N                4.2693873939        3.8569335735       16.2722872611
N                4.1394384205        3.7797204059        9.4845923383
H                3.6820816320        3.0390207774        8.9693201256
H                4.5670510737        4.5132839516        8.9343307711
H                3.0935081139        1.9880304369       13.5498288034
H                5.3136514368        5.6829581923       13.4629188676
H                3.0443181965        1.9541199241       11.0792230087
H                5.2707581830        5.6571983111       10.9917763890
End final coordinates

     Writing all to output data dir ./tmp/Zn002_3layer_ABN_relax.save/ :
     XML data file, charge density, pseudopotentials, collected wavefunctions

     General routines

     Parallel routines

     PAW routines

   This run was terminated on:   2:57:14   1Apr2025

   JOB DONE.