     Program PWSCF v.7.3.1 starts on  5Apr2025 at  3:18:11

     Waiting for input...
     Reading input from standard input
Warning: card &CELL ignored
Warning: card   CELL_DOFREE = 'ALL' ignored
Warning: card / ignored

     Current dimensions of program PWSCF are:
     Max number of different atomic species (ntypx) = 10
     Max number of k-points (npk) =  40000
     Max angular momentum in pseudopotentials (lmaxx) =  4

     File ./tmp/02_Zn100_H2O.update deleted, as requested

     File ./tmp/02_Zn100_H2O.bfgs deleted, as requested
     file O.pbe-n-kjpaw_psl.0.1.UPF: wavefunction(s)  2P renormalized

     R & G space division:  proc/nbgrp/npool/nimage =      33
     Subspace diagonalization in iterative solution of the eigenvalue problem:
     one sub-group per band group will be used

     Using Slab Decomposition

     bravais-lattice index     =            0
     lattice parameter (alat)  =      18.4179  a.u.
     unit-cell volume          =   15858.2170 (a.u.)^3
     number of atoms/cell      =           51
     number of atomic types    =            3
     number of electrons       =       968.00
     number of Kohn-Sham states=          581
     kinetic-energy cutoff     =      40.0000  Ry
     charge density cutoff     =     280.0000  Ry
     scf convergence threshold =      1.0E-06
     mixing beta               =       0.4000
     number of iterations used =            8  plain     mixing
     energy convergence thresh.=      1.0E-05
     force convergence thresh. =      5.0E-04
     Exchange-correlation= PBE
                           (   1   4   3   4   0   0   0)
     nstep                     =          500

     celldm(1)=  18.417879  celldm(2)=   0.000000  celldm(3)=   0.000000
     celldm(4)=   0.000000  celldm(5)=   0.000000  celldm(6)=   0.000000

     crystal axes: (cart. coord. in units of alat)
               a(1) = (   1.000000   0.000000   0.000000 )
               a(2) = (   0.000000   1.072963   0.000000 )
               a(3) = (   0.000000  -1.365810   2.365652 )

     reciprocal axes: (cart. coord. in units 2 pi/alat)
               b(1) = (  1.000000  0.000000 -0.000000 )
               b(2) = ( -0.000000  0.931999  0.538090 )
               b(3) = (  0.000000  0.000000  0.422716 )

     PseudoPot. # 1 for Zn read from file:
     /home/ys/qepseudo/SSSP_1.3.0_PBE_efficiency/Zn_pbe_v1.uspp.F.UPF
     MD5 check sum: df62231357ef9e81f77b2b3087fa5675
     Pseudo is Ultrasoft, Zval = 20.0
     Generated by new atomic code, or converted to UPF format
     Using radial grid of  943 points,  6 beta functions with:
                l(1) =   0
                l(2) =   0
                l(3) =   1
                l(4) =   1
                l(5) =   2
                l(6) =   2
     Q(r) pseudized with  8 coefficients,  rinner =    1.100   1.100   1.100
                                                       1.100   1.100

     PseudoPot. # 2 for O  read from file:
     /home/ys/qepseudo/SSSP_1.3.0_PBE_efficiency/O.pbe-n-kjpaw_psl.0.1.UPF
     MD5 check sum: 0234752ac141de4415c5fc33072bef88
     Pseudo is Projector augmented-wave + core cor, Zval =  6.0
     Generated using "atomic" code by A. Dal Corso  v.5.0.99 svn rev. 10869
     Shape of augmentation charge: BESSEL
     Using radial grid of 1095 points,  4 beta functions with:
                l(1) =   0
                l(2) =   0
                l(3) =   1
                l(4) =   1
     Q(r) pseudized with 0 coefficients

     PseudoPot. # 3 for H  read from file:
     /home/ys/qepseudo/SSSP_1.3.0_PBE_efficiency/H.pbe-rrkjus_psl.1.0.0.UPF
     MD5 check sum: f52b6d4d1c606e5624b1dc7b2218f220
     Pseudo is Ultrasoft, Zval =  1.0
     Generated using "atomic" code by A. Dal Corso  v.5.1
     Using radial grid of  929 points,  2 beta functions with:
                l(1) =   0
                l(2) =   0
     Q(r) pseudized with 0 coefficients

     atomic species   valence    mass     pseudopotential
     Zn               20.00    65.38000     Zn( 1.00)
     O                 6.00    15.99940     O ( 1.00)
     H                 1.00     1.00794     H ( 1.00)

     No symmetry found

                                    s                        frac. trans.

      isym =  1     identity

 cryst.   s( 1) = (     1          0          0      )
                  (     0          1          0      )
                  (     0          0          1      )

 cart.    s( 1) = (  1.0000000  0.0000000  0.0000000 )
                  (  0.0000000  1.0000000 -0.0000000 )
                  (  0.0000000  0.0000000  1.0000000 )

   Cartesian axes

     site n.     atom                  positions (alat units)
         1        Zn     tau(   1) = (   0.1250000   0.1341203   0.0774344  )
         2        Zn     tau(   2) = (   0.1250000   0.6706017   0.0774344  )
         3        Zn     tau(   3) = (   0.0662833  -0.0000442   0.3682406  )
         4        Zn     tau(   4) = (   0.0659554   0.5373290   0.3666532  )
         5        Zn     tau(   5) = (   0.1421200  -0.1341714   0.6223076  )
         6        Zn     tau(   6) = (   0.1414607   0.4039392   0.6127570  )
         7        Zn     tau(   7) = (   0.1250000   0.4023610   0.0774344  )
         8        Zn     tau(   8) = (   0.1250000   0.9388424   0.0774344  )
         9        Zn     tau(   9) = (   0.0663205   0.2685430   0.3665279  )
        10        Zn     tau(  10) = (   0.0660495   0.8054065   0.3652466  )
        11        Zn     tau(  11) = (   0.1406041   0.1342673   0.6137064  )
        12        Zn     tau(  12) = (   0.1423278   0.6714000   0.6229693  )
        13        Zn     tau(  13) = (   0.6250000   0.1341203   0.0774344  )
        14        Zn     tau(  14) = (   0.6250000   0.6706017   0.0774344  )
        15        Zn     tau(  15) = (   0.5662968   0.0001080   0.3667042  )
        16        Zn     tau(  16) = (   0.5648740   0.5373240   0.3656117  )
        17        Zn     tau(  17) = (   0.6422710  -0.1337523   0.6186020  )
        18        Zn     tau(  18) = (   0.6434248   0.4026004   0.6166134  )
        19        Zn     tau(  19) = (   0.6250000   0.4023610   0.0774344  )
        20        Zn     tau(  20) = (   0.6250000   0.9388424   0.0774344  )
        21        Zn     tau(  21) = (   0.5660275   0.2686213   0.3655646  )
        22        Zn     tau(  22) = (   0.5660111   0.8052807   0.3627378  )
        23        Zn     tau(  23) = (   0.6427095   0.1348801   0.6181255  )
        24        Zn     tau(  24) = (   0.6415908   0.6717926   0.6184468  )
        25        Zn     tau(  25) = (   0.3750000  -0.0000000   0.1548688  )
        26        Zn     tau(  26) = (   0.3750000   0.5364814   0.1548688  )
        27        Zn     tau(  27) = (   0.3076212  -0.1338349   0.3805686  )
        28        Zn     tau(  28) = (   0.3106051   0.4026061   0.3837919  )
        29        Zn     tau(  29) = (   0.3952910  -0.2667789   0.6142529  )
        30        Zn     tau(  30) = (   0.3978562   0.2685852   0.6329554  )
        31        Zn     tau(  31) = (   0.3750000   0.2682407   0.1548688  )
        32        Zn     tau(  32) = (   0.3750000   0.8047221   0.1548688  )
        33        Zn     tau(  33) = (   0.3116654   0.1354883   0.3835569  )
        34        Zn     tau(  34) = (   0.3066763   0.6705365   0.3819142  )
        35        Zn     tau(  35) = (   0.3949975   0.0002583   0.6128351  )
        36        Zn     tau(  36) = (   0.3964238   0.5377731   0.6116517  )
        37        Zn     tau(  37) = (   0.8750000  -0.0000000   0.1548688  )
        38        Zn     tau(  38) = (   0.8750000   0.5364814   0.1548688  )
        39        Zn     tau(  39) = (   0.8069958  -0.1345601   0.3798892  )
        40        Zn     tau(  40) = (   0.8078624   0.4027499   0.3817754  )
        41        Zn     tau(  41) = (   0.8958346  -0.2683978   0.6138225  )
        42        Zn     tau(  42) = (   0.8959019   0.2679088   0.6142435  )
        43        Zn     tau(  43) = (   0.8750000   0.2682407   0.1548688  )
        44        Zn     tau(  44) = (   0.8750000   0.8047221   0.1548688  )
        45        Zn     tau(  45) = (   0.8084459   0.1348810   0.3787901  )
        46        Zn     tau(  46) = (   0.8070453   0.6707963   0.3815438  )
        47        Zn     tau(  47) = (   0.8940263  -0.0006339   0.6129604  )
        48        Zn     tau(  48) = (   0.8958685   0.5369126   0.6146199  )
        49        O      tau(  49) = (   0.3441595   0.2888091   0.8892061  )
        50        H      tau(  50) = (   0.2648002   0.2274146   0.8836402  )
        51        H      tau(  51) = (   0.3022036   0.3791473   0.8758628  )

     DFT-D3 Dispersion Correction (3-body terms):
       Reference C6 values for interpolation:

         atom   Coordination number   C6
         H          0.912             6.05
         H          0.000            15.18
         O          0.000            31.01
         O          0.993            25.63
         O          1.989            20.74
         Zn         0.000           681.04
         Zn         1.942           306.91

       Values used:

         atom   Coordination number  R0_AB[au]  C6      C8
         Zn         4.474            3.053    306.91  23930.67
         Zn         4.504            3.053    306.91  23930.67
         Zn         7.264            3.053    306.91  23930.67
         Zn         7.269            3.053    306.91  23930.67
         Zn         6.147            3.053    306.91  23930.67
         Zn         6.427            3.053    306.91  23930.67
         Zn         4.484            3.053    306.91  23930.67
         Zn         4.497            3.053    306.91  23930.67
         Zn         7.334            3.053    306.91  23930.67
         Zn         7.180            3.053    306.91  23930.67
         Zn         6.396            3.053    306.91  23930.67
         Zn         6.126            3.053    306.91  23930.67
         Zn         4.505            3.053    306.91  23930.67
         Zn         4.529            3.053    306.91  23930.67
         Zn         7.315            3.053    306.91  23930.67
         Zn         7.345            3.053    306.91  23930.67
         Zn         6.239            3.053    306.91  23930.67
         Zn         6.328            3.053    306.91  23930.67
         Zn         4.504            3.053    306.91  23930.67
         Zn         4.528            3.053    306.91  23930.67
         Zn         7.194            3.053    306.91  23930.67
         Zn         7.242            3.053    306.91  23930.67
         Zn         6.273            3.053    306.91  23930.67
         Zn         6.225            3.053    306.91  23930.67
         Zn         6.386            3.053    306.91  23930.67
         Zn         6.399            3.053    306.91  23930.67
         Zn         8.290            3.053    306.91  23930.67
         Zn         8.253            3.053    306.91  23930.67
         Zn         6.423            3.053    306.91  23930.67
         Zn         5.974            3.053    306.91  23930.67
         Zn         6.389            3.053    306.91  23930.67
         Zn         6.431            3.053    306.91  23930.67
[...]
     atom   34 type  1   force =     0.00000000    0.00000000    0.00000000
     atom   35 type  1   force =     0.00000000    0.00000000    0.00000000
     atom   36 type  1   force =     0.00000000    0.00000000    0.00000000
     atom   37 type  1   force =     0.00000000    0.00000000    0.00000000
     atom   38 type  1   force =     0.00000000    0.00000000    0.00000000
     atom   39 type  1   force =     0.00000000    0.00000000    0.00000000
     atom   40 type  1   force =     0.00000000    0.00000000    0.00000000
     atom   41 type  1   force =     0.00000000    0.00000000    0.00000000
     atom   42 type  1   force =     0.00000000    0.00000000    0.00000000
     atom   43 type  1   force =     0.00000000    0.00000000    0.00000000
     atom   44 type  1   force =     0.00000000    0.00000000    0.00000000
     atom   45 type  1   force =     0.00000000    0.00000000    0.00000000
     atom   46 type  1   force =     0.00000000    0.00000000    0.00000000
     atom   47 type  1   force =     0.00000000    0.00000000    0.00000000
     atom   48 type  1   force =     0.00000000    0.00000000    0.00000000
     atom   49 type  2   force =     0.00000000    0.00000000    0.00000000
     atom   50 type  3   force =     0.00000000    0.00000000    0.00000000
     atom   51 type  3   force =     0.00000000    0.00000000    0.00000000
     The SCF correction term to forces
     atom    1 type  1   force =     0.00000000   -0.00000000    0.00000000
     atom    2 type  1   force =     0.00000000    0.00000000    0.00000000
     atom    3 type  1   force =    -0.00002098   -0.00016544    0.00001181
     atom    4 type  1   force =     0.00002651    0.00016259    0.00003136
     atom    5 type  1   force =    -0.00001892   -0.00012148   -0.00004551
     atom    6 type  1   force =     0.00000906    0.00011920   -0.00001226
     atom    7 type  1   force =     0.00000000    0.00000000    0.00000000
     atom    8 type  1   force =     0.00000000   -0.00000000    0.00000000
     atom    9 type  1   force =    -0.00001454   -0.00001409    0.00001600
     atom   10 type  1   force =     0.00002329    0.00001157    0.00002790
     atom   11 type  1   force =    -0.00001461   -0.00009177    0.00000715
     atom   12 type  1   force =     0.00001464    0.00009110   -0.00004531
     atom   13 type  1   force =    -0.00000000   -0.00000000    0.00000000
     atom   14 type  1   force =    -0.00000000    0.00000000    0.00000000
     atom   15 type  1   force =    -0.00007365   -0.00013153   -0.00000796
     atom   16 type  1   force =    -0.00011442    0.00014545    0.00002018
     atom   17 type  1   force =    -0.00009878   -0.00006019   -0.00006548
     atom   18 type  1   force =    -0.00011248    0.00005614   -0.00000611
     atom   19 type  1   force =    -0.00000000    0.00000000    0.00000000
     atom   20 type  1   force =    -0.00000000   -0.00000000    0.00000000
     atom   21 type  1   force =    -0.00008707   -0.00001446   -0.00000295
     atom   22 type  1   force =    -0.00011019    0.00001404    0.00000579
     atom   23 type  1   force =    -0.00008074   -0.00007544   -0.00000711
     atom   24 type  1   force =    -0.00011975    0.00006837   -0.00005728
     atom   25 type  1   force =     0.00000000   -0.00000000    0.00000000
     atom   26 type  1   force =     0.00000000    0.00000000    0.00000000
     atom   27 type  1   force =     0.00003159   -0.00011487    0.00000596
     atom   28 type  1   force =     0.00003636    0.00013075   -0.00000348
     atom   29 type  1   force =    -0.00006036   -0.00003069   -0.00009428
     atom   30 type  1   force =     0.00002151    0.00002295   -0.00004551
     atom   31 type  1   force =     0.00000000   -0.00000000    0.00000000
     atom   32 type  1   force =     0.00000000    0.00000000    0.00000000
     atom   33 type  1   force =     0.00004100   -0.00010851   -0.00003824
     atom   34 type  1   force =     0.00003048    0.00010713    0.00002886
     atom   35 type  1   force =    -0.00001330   -0.00012223   -0.00003818
     atom   36 type  1   force =    -0.00003879    0.00014814   -0.00005979
     atom   37 type  1   force =    -0.00000000   -0.00000000    0.00000000
     atom   38 type  1   force =    -0.00000000    0.00000000    0.00000000
     atom   39 type  1   force =    -0.00009975   -0.00007142   -0.00000307
     atom   40 type  1   force =    -0.00011796    0.00006655   -0.00000240
     atom   41 type  1   force =    -0.00007168    0.00002319   -0.00004841
     atom   42 type  1   force =    -0.00010721   -0.00002882    0.00003114
     atom   43 type  1   force =    -0.00000000   -0.00000000   -0.00000000
     atom   44 type  1   force =    -0.00000000    0.00000000    0.00000000
     atom   45 type  1   force =    -0.00013257   -0.00012497    0.00000865
     atom   46 type  1   force =    -0.00009866    0.00010554   -0.00000391
     atom   47 type  1   force =    -0.00010891   -0.00011325   -0.00001418
     atom   48 type  1   force =    -0.00006493    0.00011488   -0.00000589
     atom   49 type  2   force =    -0.00004055    0.00004394    0.00001295
     atom   50 type  3   force =    -0.00000236   -0.00000036    0.00000310
     atom   51 type  3   force =     0.00000088    0.00000251    0.00000177

     DFT-D3 dispersion contribution to forces:
     atom    1 type  1   force =    -0.00000713   -0.00001696    0.00018108
     atom    2 type  1   force =    -0.00003148   -0.00000375    0.00011963
     atom    3 type  1   force =     0.00074154   -0.00002362    0.00125069
     atom    4 type  1   force =     0.00072571    0.00001494    0.00124406
     atom    5 type  1   force =    -0.00024273    0.00010893   -0.00236717
     atom    6 type  1   force =     0.00015080   -0.00027985   -0.00190000
     atom    7 type  1   force =    -0.00000284    0.00001370    0.00018702
     atom    8 type  1   force =    -0.00002262   -0.00000597    0.00013484
     atom    9 type  1   force =     0.00078744    0.00000430    0.00133852
     atom   10 type  1   force =     0.00078602   -0.00000068    0.00116964
     atom   11 type  1   force =     0.00011861    0.00033664   -0.00195940
     atom   12 type  1   force =    -0.00018467   -0.00016199   -0.00228436
     atom   13 type  1   force =    -0.00001727   -0.00000493    0.00012668
     atom   14 type  1   force =    -0.00002239   -0.00000502    0.00013527
     atom   15 type  1   force =     0.00072440    0.00001905    0.00126655
     atom   16 type  1   force =     0.00071941   -0.00002505    0.00131064
     atom   17 type  1   force =    -0.00032423    0.00002942   -0.00243719
     atom   18 type  1   force =    -0.00065818   -0.00015065   -0.00220565
     atom   19 type  1   force =    -0.00001592    0.00000188    0.00013090
     atom   20 type  1   force =    -0.00001878   -0.00000050    0.00013773
     atom   21 type  1   force =     0.00073912   -0.00000244    0.00108852
     atom   22 type  1   force =     0.00079186    0.00001657    0.00114934
     atom   23 type  1   force =    -0.00057345    0.00017628   -0.00226266
     atom   24 type  1   force =    -0.00031908   -0.00006372   -0.00239645
     atom   25 type  1   force =    -0.00013398   -0.00001710    0.00394628
     atom   26 type  1   force =    -0.00012929    0.00002239    0.00395529
     atom   27 type  1   force =    -0.00019491   -0.00002062    0.00014103
     atom   28 type  1   force =    -0.00017110   -0.00001344    0.00019339
     atom   29 type  1   force =    -0.00014796   -0.00000684   -0.00284249
     atom   30 type  1   force =     0.00013876   -0.00005083   -0.00274215
     atom   31 type  1   force =    -0.00009833    0.00000221    0.00394428
     atom   32 type  1   force =    -0.00008989   -0.00000267    0.00398727
     atom   33 type  1   force =    -0.00017036    0.00000965    0.00014081
     atom   34 type  1   force =    -0.00022351    0.00003925    0.00015095
     atom   35 type  1   force =    -0.00025819    0.00042683   -0.00254934
     atom   36 type  1   force =    -0.00024629   -0.00046281   -0.00244647
     atom   37 type  1   force =    -0.00013326    0.00000560    0.00397654
     atom   38 type  1   force =    -0.00012783    0.00000273    0.00397683
     atom   39 type  1   force =    -0.00024296    0.00001055    0.00013918
     atom   40 type  1   force =    -0.00023786    0.00000446    0.00014841
     atom   41 type  1   force =    -0.00010795    0.00000568   -0.00291402
     atom   42 type  1   force =    -0.00004519   -0.00000435   -0.00274711
     atom   43 type  1   force =    -0.00011222    0.00000242    0.00402623
     atom   44 type  1   force =    -0.00010209    0.00000106    0.00397700
     atom   45 type  1   force =    -0.00023831   -0.00002206    0.00013972
     atom   46 type  1   force =    -0.00024577   -0.00001243    0.00013146
     atom   47 type  1   force =    -0.00011898    0.00002942   -0.00291290
     atom   48 type  1   force =    -0.00009712   -0.00003941   -0.00290245
     atom   49 type  2   force =    -0.00003520    0.00002796   -0.00113528
     atom   50 type  3   force =    -0.00017477   -0.00011573   -0.00147499
     atom   51 type  3   force =    -0.00009956    0.00020150   -0.00146569

     Total force =     0.001924     Total SCF correction =     0.000728

     DFT-D3 dispersion Force =     0.015890
     SCF correction compared to forces is large: reduce conv_thr to get better values

     Computing stress (Cartesian axis) and pressure

     negative rho (up, down):  5.883E-03 0.000E+00
          total   stress  (Ry/bohr**3)                   (kbar)     P=      -17.89
  -0.00023248   0.00000012  -0.00000053          -34.20        0.02       -0.08
   0.00000012  -0.00011798  -0.00000026            0.02      -17.36       -0.04
  -0.00000053  -0.00000026  -0.00001446           -0.08       -0.04       -2.13

     kinetic stress (kbar)  12039.89     -2.83      0.82
                               -2.83  12019.78      0.30
                                0.82      0.30  12101.53

     local   stress (kbar)**********     -6.50     23.91
                               -6.50**********    -11.65
                               23.91    -11.651041161.78

     nonloc. stress (kbar)  -1259.61      0.01      0.09
                                0.01  -1247.53      0.04
                                0.09      0.04  -1287.95

     hartree stress (kbar) 541121.17      0.96    -14.54
                                0.96 544944.05      5.33
                              -14.54      5.33-486861.45

     exc-cor stress (kbar)  -6032.54      0.03      0.04
                                0.03  -6030.11     -0.01
                                0.04     -0.01  -6038.14

     corecor stress (kbar)     -3.94      0.01     -0.00
                                0.01     -3.92     -0.00
                               -0.00     -0.00     -3.97

     ewald   stress (kbar) 483676.38      8.34    -10.28
                                8.34 488796.22      5.95
                              -10.28      5.95-559070.61

     hubbard stress (kbar)      0.00      0.00      0.00
                                0.00      0.00      0.00
                                0.00      0.00      0.00

     DFT-D   stress (kbar)     -7.38     -0.00     -0.11
                               -0.00     -8.66      0.01
                               -0.11      0.01     -3.31

     XDM     stress (kbar)      0.00      0.00      0.00
                                0.00      0.00      0.00
                                0.00      0.00      0.00

     dft-nl  stress (kbar)      0.00      0.00      0.00
                                0.00      0.00      0.00
                                0.00      0.00      0.00

     TS-vdW  stress (kbar)      0.00      0.00      0.00
                                0.00      0.00      0.00
                                0.00      0.00      0.00

     MDB     stress (kbar)      0.00      0.00      0.00
                                0.00      0.00      0.00
                                0.00      0.00      0.00

     3D-RISM stress (kbar)      0.00      0.00      0.00
                                0.00      0.00      0.00
                                0.00      0.00      0.00

     Energy error            =      7.7E-06 Ry
     Gradient error          =      4.5E-04 Ry/Bohr

     bfgs converged in  40 scf cycles and  39 bfgs steps
     (criteria: energy <  1.0E-05 Ry, force <  5.0E-04 Ry/Bohr)

     End of BFGS Geometry Optimization

     Final energy             =  -22198.8258005914 Ry

     File ./tmp/02_Zn100_H2O.bfgs deleted, as requested
Begin final coordinates

ATOMIC_POSITIONS (angstrom)
Zn               1.2182900000        1.3071800000        0.7547010000    0   0   0
Zn               1.2182900000        6.5359000000        0.7547010000    0   0   0
Zn               0.5311116106       -0.0020984167        3.6325126955
Zn               0.5304966500        5.2331410484        3.6322477385
Zn               1.2255275263       -1.3060269019        6.0725994878
Zn               1.2239875275        3.9231449258        6.0256021404
Zn               1.2182900000        3.9215400000        0.7547010000    0   0   0
Zn               1.2182900000        9.1502600000        0.7547010000    0   0   0
Zn               0.5324475598        2.6159616783        3.6198870777
Zn               0.5340060972        7.8451034384        3.6203622158
Zn               1.2274230266        1.3089243404        6.0272901985
Zn               1.2281018633        6.5391930960        6.0756820661
Zn               6.0914510000        1.3071800000        0.7547010000    0   0   0
Zn               6.0914510000        6.5359000000        0.7547010000    0   0   0
Zn               5.4035925098        0.0002057315        3.6329327156
Zn               5.4046487177        5.2323917656        3.6305146598
Zn               6.1002289858       -1.3088981643        6.0725933271
Zn               6.1110255647        3.9240204499        6.0544628961
Zn               6.0914510000        3.9215400000        0.7547010000    0   0   0
Zn               6.0914510000        9.1502600000        0.7547010000    0   0   0
Zn               5.4001518471        2.6161471156        3.6299183475
Zn               5.4045045582        7.8460098648        3.6213140258
Zn               6.1098677431        1.3079805249        6.0612779281
Zn               6.1054659987        6.5414827645        6.0716493143
Zn               3.6548710000       -0.0000000000        1.5094010000    0   0   0
Zn               3.6548710000        5.2287200000        1.5094010000    0   0   0
Zn               2.8848180115       -1.3033600799        3.6928332026
Zn               2.8966599610        3.9144231944        3.7084058341
Zn               3.6725939551       -2.6087590262        5.9981651358
Zn               3.7041488729        2.6156207611        6.1342483476
Zn               3.6548710000        2.6143600000        1.5094010000    0   0   0
Zn               3.6548710000        7.8430800000        1.5094010000    0   0   0
Zn               2.8969897558        1.3160004973        3.7061548844
Zn               2.8811979456        6.5395384514        3.6878932716
Zn               3.6743483923       -0.0015532456        5.9786916292
Zn               3.6785970169        5.2387748682        5.9573500991
Zn               8.5280310000       -0.0000000000        1.5094010000    0   0   0
Zn               8.5280310000        5.2287200000        1.5094010000    0   0   0
Zn               7.7541872767       -1.3058883869        3.6933750955
Zn               7.7567526906        3.9213312234        3.6889383417
Zn               8.5513834836       -2.6124278928        5.9995601259
Zn               8.5498266516        2.6143371855        5.9985033580
Zn               8.5280310000        2.6143600000        1.5094010000    0   0   0
Zn               8.5280310000        7.8430800000        1.5094010000    0   0   0
Zn               7.7555797942        1.3069382512        3.6883389596
Zn               7.7544213672        6.5352275691        3.6914038471
Zn               8.5453480938        0.0009177050        5.9917702247
Zn               8.5490188675        5.2288239677        5.9927988003
O                3.4558062153        2.7329131898        8.6310202583
H                2.6718826049        2.1520852809        8.6697578376
H                3.0817165511        3.6351142995        8.6257898768
End final coordinates

     Writing all to output data dir ./tmp/02_Zn100_H2O.save/ :
     XML data file, charge density, pseudopotentials, collected wavefunctions

     General routines

     Parallel routines

     PAW routines

   This run was terminated on:   3:18:20   6Apr2025

   JOB DONE.