     Program PWSCF v.7.3.1 starts on 25Mar2025 at  3:53:34

     Waiting for input...
     Reading input from standard input
Warning: card &CELL ignored
Warning: card   CELL_DOFREE = 'ALL' ignored
Warning: card / ignored

     Current dimensions of program PWSCF are:
     Max number of different atomic species (ntypx) = 10
     Max number of k-points (npk) =  40000
     Max angular momentum in pseudopotentials (lmaxx) =  4
     Message from routine input:
     WARNING: "startingwfc" set to atomic+random may spoil restart
     Message from routine input:
     WARNING: "startingpot" set to atomic may spoil restart
     file O.pbe-n-kjpaw_psl.0.1.UPF: wavefunction(s)  2P renormalized

     R & G space division:  proc/nbgrp/npool/nimage =      34
     Subspace diagonalization in iterative solution of the eigenvalue problem:
     one sub-group per band group will be used

     Using Slab Decomposition

     bravais-lattice index     =            0
     lattice parameter (alat)  =      18.4179  a.u.
     unit-cell volume          =   15858.2170 (a.u.)^3
     number of atoms/cell      =           67
     number of atomic types    =            3
     number of electrons       =      1288.00
     number of Kohn-Sham states=          773
     kinetic-energy cutoff     =      30.0000  Ry
     charge density cutoff     =     120.0000  Ry
     scf convergence threshold =      7.3E-07
     mixing beta               =       0.7000
     number of iterations used =            8  plain     mixing
     energy convergence thresh.=      1.0E-05
     force convergence thresh. =      5.0E-04
     Exchange-correlation= PBE
                           (   1   4   3   4   0   0   0)
     nstep                     =          100

     celldm(1)=  18.417879  celldm(2)=   0.000000  celldm(3)=   0.000000
     celldm(4)=   0.000000  celldm(5)=   0.000000  celldm(6)=   0.000000

     crystal axes: (cart. coord. in units of alat)
               a(1) = (   1.000000   0.000000   0.000000 )
               a(2) = (   0.000000   1.072963   0.000000 )
               a(3) = (   0.000000  -1.365810   2.365652 )

     reciprocal axes: (cart. coord. in units 2 pi/alat)
               b(1) = (  1.000000  0.000000 -0.000000 )
               b(2) = ( -0.000000  0.931999  0.538090 )
               b(3) = (  0.000000  0.000000  0.422716 )

     PseudoPot. # 1 for Zn read from file:
     /home/ys/qepseudo/SSSP_1.3.0_PBE_efficiency/Zn_pbe_v1.uspp.F.UPF
     MD5 check sum: df62231357ef9e81f77b2b3087fa5675
     Pseudo is Ultrasoft, Zval = 20.0
     Generated by new atomic code, or converted to UPF format
     Using radial grid of  943 points,  6 beta functions with:
                l(1) =   0
                l(2) =   0
                l(3) =   1
                l(4) =   1
                l(5) =   2
                l(6) =   2
     Q(r) pseudized with  8 coefficients,  rinner =    1.100   1.100   1.100
                                                       1.100   1.100

     PseudoPot. # 2 for O  read from file:
     /home/ys/qepseudo/SSSP_1.3.0_PBE_efficiency/O.pbe-n-kjpaw_psl.0.1.UPF
     MD5 check sum: 0234752ac141de4415c5fc33072bef88
     Pseudo is Projector augmented-wave + core cor, Zval =  6.0
     Generated using "atomic" code by A. Dal Corso  v.5.0.99 svn rev. 10869
     Shape of augmentation charge: BESSEL
     Using radial grid of 1095 points,  4 beta functions with:
                l(1) =   0
                l(2) =   0
                l(3) =   1
                l(4) =   1
     Q(r) pseudized with 0 coefficients

     PseudoPot. # 3 for H  read from file:
     /home/ys/qepseudo/SSSP_1.3.0_PBE_efficiency/H.pbe-rrkjus_psl.1.0.0.UPF
     MD5 check sum: f52b6d4d1c606e5624b1dc7b2218f220
     Pseudo is Ultrasoft, Zval =  1.0
     Generated using "atomic" code by A. Dal Corso  v.5.1
     Using radial grid of  929 points,  2 beta functions with:
                l(1) =   0
                l(2) =   0
     Q(r) pseudized with 0 coefficients

     atomic species   valence    mass     pseudopotential
     Zn               20.00    65.38000     Zn( 1.00)
     O                 6.00    16.00000     O ( 1.00)
     H                 1.00     1.00800     H ( 1.00)

     No symmetry found

                                    s                        frac. trans.

      isym =  1     identity

 cryst.   s( 1) = (     1          0          0      )
                  (     0          1          0      )
                  (     0          0          1      )

 cart.    s( 1) = (  1.0000000  0.0000000  0.0000000 )
                  (  0.0000000  1.0000000 -0.0000000 )
                  (  0.0000000  0.0000000  1.0000000 )

   Cartesian axes

     site n.     atom                  positions (alat units)
         1        Zn     tau(   1) = (   0.1250000   0.1341203   0.0774344  )
         2        Zn     tau(   2) = (   0.1250000   0.6706017   0.0774344  )
         3        Zn     tau(   3) = (   0.1250000   0.0000000   0.3097376  )
         4        Zn     tau(   4) = (   0.1250000   0.5364813   0.3097376  )
         5        Zn     tau(   5) = (   0.1226937  -0.1342678   0.5721143  )
         6        Zn     tau(   6) = (   0.1233428   0.4022668   0.5726129  )
         7        Zn     tau(   7) = (   0.1282625  -0.2684914   0.8357257  )
         8        Zn     tau(   8) = (   0.1280464   0.2681976   0.8353225  )
         9        Zn     tau(   9) = (   0.1250000   0.4023610   0.0774344  )
        10        Zn     tau(  10) = (   0.1250000   0.9388423   0.0774344  )
        11        Zn     tau(  11) = (   0.1250000   0.2682407   0.3097376  )
        12        Zn     tau(  12) = (   0.1250000   0.8047220   0.3097376  )
        13        Zn     tau(  13) = (   0.1231259   0.1339622   0.5724000  )
        14        Zn     tau(  14) = (   0.1228292   0.6704377   0.5719214  )
        15        Zn     tau(  15) = (   0.1283750   0.0002958   0.8355474  )
        16        Zn     tau(  16) = (   0.1278314   0.5357995   0.8353676  )
        17        Zn     tau(  17) = (   0.6250000   0.1341203   0.0774344  )
        18        Zn     tau(  18) = (   0.6250000   0.6706017   0.0774344  )
        19        Zn     tau(  19) = (   0.6250000   0.0000000   0.3097376  )
        20        Zn     tau(  20) = (   0.6250000   0.5364813   0.3097376  )
        21        Zn     tau(  21) = (   0.6216567  -0.1339711   0.6334453  )
        22        Zn     tau(  22) = (   0.6223841   0.4017643   0.6296451  )
        23        Zn     tau(  23) = (   0.6295770  -0.2685605   0.9091077  )
        24        Zn     tau(  24) = (   0.6285627   0.2686515   0.9373053  )
        25        Zn     tau(  25) = (   0.6250000   0.4023610   0.0774344  )
        26        Zn     tau(  26) = (   0.6250000   0.9388423   0.0774344  )
        27        Zn     tau(  27) = (   0.6250000   0.2682407   0.3097376  )
        28        Zn     tau(  28) = (   0.6250000   0.8047220   0.3097376  )
        29        Zn     tau(  29) = (   0.6222255   0.1354471   0.6365396  )
        30        Zn     tau(  30) = (   0.6218740   0.6699238   0.6325523  )
        31        Zn     tau(  31) = (   0.6294055  -0.0010291   0.9066122  )
        32        Zn     tau(  32) = (   0.6287053   0.5367384   0.9111350  )
        33        Zn     tau(  33) = (   0.3750000  -0.0000000   0.1548688  )
        34        Zn     tau(  34) = (   0.3750000   0.5364813   0.1548688  )
        35        Zn     tau(  35) = (   0.3750000  -0.1341203   0.3871721  )
        36        Zn     tau(  36) = (   0.3750000   0.4023610   0.3871721  )
        37        Zn     tau(  37) = (   0.3709504  -0.2683888   0.6264287  )
        38        Zn     tau(  38) = (   0.3716711   0.2681138   0.6262309  )
        39        Zn     tau(  39) = (   0.3813531  -0.4024622   0.8753726  )
        40        Zn     tau(  40) = (   0.3845767   0.1344687   0.8752343  )
        41        Zn     tau(  41) = (   0.3750000   0.2682407   0.1548688  )
        42        Zn     tau(  42) = (   0.3750000   0.8047220   0.1548688  )
        43        Zn     tau(  43) = (   0.3750000   0.1341203   0.3871721  )
        44        Zn     tau(  44) = (   0.3750000   0.6706017   0.3871721  )
        45        Zn     tau(  45) = (   0.3705552   0.0002858   0.6271173  )
        46        Zn     tau(  46) = (   0.3709228   0.5361808   0.6270606  )
        47        Zn     tau(  47) = (   0.3807225  -0.1341275   0.8754031  )
        48        Zn     tau(  48) = (   0.3842158   0.4017165   0.8758060  )
        49        Zn     tau(  49) = (   0.8750000  -0.0000000   0.1548688  )
        50        Zn     tau(  50) = (   0.8750000   0.5364813   0.1548688  )
        51        Zn     tau(  51) = (   0.8750000  -0.1341203   0.3871721  )
        52        Zn     tau(  52) = (   0.8750000   0.4023610   0.3871721  )
        53        Zn     tau(  53) = (   0.8723409  -0.2683593   0.6266513  )
        54        Zn     tau(  54) = (   0.8733070   0.2681773   0.6258121  )
        55        Zn     tau(  55) = (   0.8769134  -0.4025439   0.8751318  )
        56        Zn     tau(  56) = (   0.8737803   0.1344867   0.8733800  )
        57        Zn     tau(  57) = (   0.8750000   0.2682407   0.1548688  )
        58        Zn     tau(  58) = (   0.8750000   0.8047220   0.1548688  )
        59        Zn     tau(  59) = (   0.8750000   0.1341203   0.3871721  )
        60        Zn     tau(  60) = (   0.8750000   0.6706017   0.3871721  )
        61        Zn     tau(  61) = (   0.8732401   0.0001419   0.6267869  )
        62        Zn     tau(  62) = (   0.8735923   0.5361338   0.6271964  )
        63        Zn     tau(  63) = (   0.8777373  -0.1341143   0.8748244  )
        64        Zn     tau(  64) = (   0.8724576   0.4015664   0.8743243  )
        65        O      tau(  65) = (   0.6381713   0.2556437   1.1857636  )
        66        H      tau(  66) = (   0.7356079   0.2404276   1.2064246  )
        67        H      tau(  67) = (   0.5934078   0.1686212   1.2097141  )

   Crystallographic axes

     site n.     atom                  positions (cryst. coord.)
         1        Zn     tau(   1) = (  0.1250000  0.1666667  0.0327328  )
         2        Zn     tau(   2) = (  0.1250000  0.6666667  0.0327328  )
         3        Zn     tau(   3) = (  0.1250000  0.1666667  0.1309312  )
         4        Zn     tau(   4) = (  0.1250000  0.6666667  0.1309312  )
         5        Zn     tau(   5) = (  0.1226937  0.1827114  0.2418421  )
         6        Zn     tau(   6) = (  0.1233428  0.6830294  0.2420529  )
         7        Zn     tau(   7) = (  0.1282625  0.1994618  0.3532750  )
         8        Zn     tau(   8) = (  0.1280464  0.6994383  0.3531045  )
         9        Zn     tau(   9) = (  0.1250000  0.4166667  0.0327328  )
        10        Zn     tau(  10) = (  0.1250000  0.9166667  0.0327328  )
        11        Zn     tau(  11) = (  0.1250000  0.4166667  0.1309312  )
        12        Zn     tau(  12) = (  0.1250000  0.9166667  0.1309312  )
        13        Zn     tau(  13) = (  0.1231259  0.4328552  0.2419628  )
        14        Zn     tau(  14) = (  0.1228292  0.9325923  0.2417606  )
        15        Zn     tau(  15) = (  0.1283750  0.4498752  0.3531996  )
[...]
     atom   43 type  1   force =     0.00000000    0.00000000    0.00000000
     atom   44 type  1   force =     0.00000000    0.00000000    0.00000000
     atom   45 type  1   force =     0.00000000    0.00000000    0.00000000
     atom   46 type  1   force =     0.00000000    0.00000000    0.00000000
     atom   47 type  1   force =     0.00000000    0.00000000    0.00000000
     atom   48 type  1   force =     0.00000000    0.00000000    0.00000000
     atom   49 type  1   force =     0.00000000    0.00000000    0.00000000
     atom   50 type  1   force =     0.00000000    0.00000000    0.00000000
     atom   51 type  1   force =     0.00000000    0.00000000    0.00000000
     atom   52 type  1   force =     0.00000000    0.00000000    0.00000000
     atom   53 type  1   force =     0.00000000    0.00000000    0.00000000
     atom   54 type  1   force =     0.00000000    0.00000000    0.00000000
     atom   55 type  1   force =     0.00000000    0.00000000    0.00000000
     atom   56 type  1   force =     0.00000000    0.00000000    0.00000000
     atom   57 type  1   force =     0.00000000    0.00000000    0.00000000
     atom   58 type  1   force =     0.00000000    0.00000000    0.00000000
     atom   59 type  1   force =     0.00000000    0.00000000    0.00000000
     atom   60 type  1   force =     0.00000000    0.00000000    0.00000000
     atom   61 type  1   force =     0.00000000    0.00000000    0.00000000
     atom   62 type  1   force =     0.00000000    0.00000000    0.00000000
     atom   63 type  1   force =     0.00000000    0.00000000    0.00000000
     atom   64 type  1   force =     0.00000000    0.00000000    0.00000000
     atom   65 type  2   force =     0.00000000    0.00000000    0.00000000
     atom   66 type  3   force =     0.00000000    0.00000000    0.00000000
     atom   67 type  3   force =     0.00000000    0.00000000    0.00000000
     The SCF correction term to forces
     atom    1 type  1   force =    -0.00000000    0.00000000    0.00000000
     atom    2 type  1   force =    -0.00000000   -0.00000000    0.00000000
     atom    3 type  1   force =    -0.00000000    0.00000000   -0.00000000
     atom    4 type  1   force =    -0.00000000   -0.00000000    0.00000000
     atom    5 type  1   force =     0.00001976    0.00007323    0.00000449
     atom    6 type  1   force =     0.00001332   -0.00006955   -0.00001078
     atom    7 type  1   force =     0.00002955   -0.00005016    0.00000000
     atom    8 type  1   force =     0.00000813    0.00004372   -0.00005385
     atom    9 type  1   force =    -0.00000000   -0.00000000    0.00000000
     atom   10 type  1   force =    -0.00000000    0.00000000    0.00000000
     atom   11 type  1   force =    -0.00000000   -0.00000000    0.00000000
     atom   12 type  1   force =    -0.00000000    0.00000000    0.00000000
     atom   13 type  1   force =    -0.00000017    0.00008006   -0.00006164
     atom   14 type  1   force =     0.00000580   -0.00008116    0.00006028
     atom   15 type  1   force =     0.00001626    0.00002100   -0.00002615
     atom   16 type  1   force =     0.00001358   -0.00001215   -0.00002182
     atom   17 type  1   force =     0.00000000    0.00000000   -0.00000000
     atom   18 type  1   force =     0.00000000   -0.00000000   -0.00000000
     atom   19 type  1   force =     0.00000000    0.00000000   -0.00000000
     atom   20 type  1   force =     0.00000000   -0.00000000   -0.00000000
     atom   21 type  1   force =    -0.00002767    0.00004871    0.00002213
     atom   22 type  1   force =    -0.00002237   -0.00004697    0.00005213
     atom   23 type  1   force =    -0.00004484   -0.00004433    0.00010472
     atom   24 type  1   force =    -0.00001783    0.00005206    0.00000955
     atom   25 type  1   force =     0.00000000   -0.00000000   -0.00000000
     atom   26 type  1   force =     0.00000000    0.00000000   -0.00000000
     atom   27 type  1   force =     0.00000000   -0.00000000   -0.00000000
     atom   28 type  1   force =     0.00000000    0.00000000   -0.00000000
     atom   29 type  1   force =    -0.00000341    0.00008358   -0.00001998
     atom   30 type  1   force =    -0.00001117   -0.00008502    0.00007100
     atom   31 type  1   force =    -0.00003207    0.00001646    0.00007881
     atom   32 type  1   force =    -0.00002518   -0.00001767    0.00005881
     atom   33 type  1   force =    -0.00000000    0.00000000   -0.00000000
     atom   34 type  1   force =    -0.00000000   -0.00000000   -0.00000000
     atom   35 type  1   force =    -0.00000000    0.00000000    0.00000000
     atom   36 type  1   force =    -0.00000000   -0.00000000    0.00000000
     atom   37 type  1   force =    -0.00013785   -0.00000809    0.00008363
     atom   38 type  1   force =    -0.00012997    0.00003222   -0.00002066
     atom   39 type  1   force =    -0.00010082   -0.00003089    0.00005191
     atom   40 type  1   force =    -0.00009257    0.00004724   -0.00000292
     atom   41 type  1   force =    -0.00000000   -0.00000000    0.00000000
     atom   42 type  1   force =    -0.00000000    0.00000000   -0.00000000
     atom   43 type  1   force =    -0.00000000    0.00000000   -0.00000000
     atom   44 type  1   force =    -0.00000000   -0.00000000    0.00000000
     atom   45 type  1   force =    -0.00014129    0.00007323   -0.00001690
     atom   46 type  1   force =    -0.00013258   -0.00009592    0.00005758
     atom   47 type  1   force =    -0.00009914   -0.00003533    0.00005237
     atom   48 type  1   force =    -0.00008771    0.00002206   -0.00001331
     atom   49 type  1   force =     0.00000000    0.00000000   -0.00000000
     atom   50 type  1   force =     0.00000000   -0.00000000   -0.00000000
     atom   51 type  1   force =     0.00000000    0.00000000   -0.00000000
     atom   52 type  1   force =     0.00000000   -0.00000000   -0.00000000
     atom   53 type  1   force =     0.00015028   -0.00003550    0.00004568
     atom   54 type  1   force =     0.00014346    0.00000898   -0.00004291
     atom   55 type  1   force =     0.00009752   -0.00005444    0.00004181
     atom   56 type  1   force =     0.00008843    0.00005570    0.00000343
     atom   57 type  1   force =     0.00000000   -0.00000000    0.00000000
     atom   58 type  1   force =     0.00000000    0.00000000   -0.00000000
     atom   59 type  1   force =     0.00000000    0.00000000   -0.00000000
     atom   60 type  1   force =     0.00000000   -0.00000000   -0.00000000
     atom   61 type  1   force =     0.00015232    0.00010699   -0.00004601
     atom   62 type  1   force =     0.00014673   -0.00008024    0.00003454
     atom   63 type  1   force =     0.00009769   -0.00001509    0.00005205
     atom   64 type  1   force =     0.00008398    0.00001941    0.00000342
     atom   65 type  2   force =     0.00000242    0.00000583    0.00001070
     atom   66 type  3   force =     0.00000079    0.00000087    0.00000100
     atom   67 type  3   force =    -0.00000024   -0.00000002    0.00000126

     Total force =     0.001553     Total SCF correction =     0.000638
     SCF correction compared to forces is large: reduce conv_thr to get better values

     Computing stress (Cartesian axis) and pressure

     negative rho (up, down):  1.284E-02 0.000E+00
          total   stress  (Ry/bohr**3)                   (kbar)     P=     -306.34
  -0.00218056   0.00000056   0.00000036         -320.77        0.08        0.05
   0.00000056  -0.00210245  -0.00000301            0.08     -309.28       -0.44
   0.00000036  -0.00000301  -0.00196439            0.05       -0.44     -288.97

     kinetic stress (kbar)  16131.78     -5.32     -2.21
                               -5.32  16096.41      5.23
                               -2.21      5.23  16182.38

     local   stress (kbar)**********    -12.48    -87.15
                              -12.48**********     47.56
                              -87.15     47.561272933.01

     nonloc. stress (kbar)  -1961.80      0.06      0.01
                                0.06  -1926.81     -0.18
                                0.01     -0.18  -1976.71

     hartree stress (kbar) 664459.08      2.15     36.94
                                2.15 672914.41    -17.33
                               36.94    -17.33-592660.53

     exc-cor stress (kbar)  -8033.59      0.06      0.04
                                0.06  -8029.32     -0.07
                                0.04     -0.07  -8037.31

     corecor stress (kbar)     -3.72      0.01      0.00
                                0.01     -3.73     -0.01
                                0.00     -0.01     -3.87

     ewald   stress (kbar) 585674.29     15.61     52.41
                               15.61 596631.59    -35.63
                               52.41    -35.63-686725.94

     hubbard stress (kbar)      0.00      0.00      0.00
                                0.00      0.00      0.00
                                0.00      0.00      0.00

     DFT-D   stress (kbar)      0.00      0.00      0.00
                                0.00      0.00      0.00
                                0.00      0.00      0.00

     XDM     stress (kbar)      0.00      0.00      0.00
                                0.00      0.00      0.00
                                0.00      0.00      0.00

     dft-nl  stress (kbar)      0.00      0.00      0.00
                                0.00      0.00      0.00
                                0.00      0.00      0.00

     TS-vdW  stress (kbar)      0.00      0.00      0.00
                                0.00      0.00      0.00
                                0.00      0.00      0.00

     MDB     stress (kbar)      0.00      0.00      0.00
                                0.00      0.00      0.00
                                0.00      0.00      0.00

     3D-RISM stress (kbar)      0.00      0.00      0.00
                                0.00      0.00      0.00
                                0.00      0.00      0.00

     Energy error            =      7.7E-06 Ry
     Gradient error          =      4.0E-04 Ry/Bohr

     bfgs converged in  75 scf cycles and  74 bfgs steps
     (criteria: energy <  1.0E-05 Ry, force <  5.0E-04 Ry/Bohr)

     End of BFGS Geometry Optimization

     Final energy             =  -29579.1533131766 Ry

     File ./tmp/Zn100_optimized_topsite_H2O.bfgs deleted, as requested
Begin final coordinates

ATOMIC_POSITIONS (angstrom)
Zn               1.2182902100        1.3071799380        0.7547006810    0   0   0
Zn               1.2182902100        6.5358996490        0.7547006810    0   0   0
Zn               1.2182902100        0.0000000010        3.0188027470    0   0   0
Zn               1.2182902100        5.2287197120        3.0188027470    0   0   0
Zn               1.1952989249       -1.3093500302        5.5775022400
Zn               1.2017604257        3.9206188983        5.5803554256
Zn               1.2509386111       -2.6168391351        8.1485333534
Zn               1.2486459596        2.6134257341        8.1414723987
Zn               1.2182902100        3.9215397940        0.7547006810    0   0   0
Zn               1.2182902100        9.1502595050        0.7547006810    0   0   0
Zn               1.2182902100        2.6143598570        3.0188027470    0   0   0
Zn               1.2182902100        7.8430795680        3.0188027470    0   0   0
Zn               1.1994865174        1.3053102759        5.5784064135
Zn               1.1964088603        6.5348063741        5.5752627071
Zn               1.2515520148        0.0025060376        8.1448921921
Zn               1.2464042423        5.2224613015        8.1429398397
Zn               6.0914510490        1.3071799380        0.7547006810    0   0   0
Zn               6.0914510490        6.5358996490        0.7547006810    0   0   0
Zn               6.0914510490        0.0000000010        3.0188027470    0   0   0
Zn               6.0914510490        5.2287197120        3.0188027470    0   0   0
Zn               6.0579316067       -1.3057241169        6.1741534523
Zn               6.0652875914        3.9158849219        6.1331922994
Zn               6.1370036548       -2.6179207381        8.8604210556
Zn               6.1274398026        2.6174782562        9.1362806977
Zn               6.0914510490        3.9215397940        0.7547006810    0   0   0
Zn               6.0914510490        9.1502595050        0.7547006810    0   0   0
Zn               6.0914510490        2.6143598570        3.0188027470    0   0   0
Zn               6.0914510490        7.8430795680        3.0188027470    0   0   0
Zn               6.0640997386        1.3198701592        6.2030667164
Zn               6.0602769788        6.5295145810        6.1658033124
Zn               6.1353611205       -0.0102253445        8.8352686662
Zn               6.1283929714        5.2311624557        8.8796777939
Zn               3.6548706290       -0.0000000190        1.5094013850    0   0   0
Zn               3.6548706290        5.2287196920        1.5094013850    0   0   0
Zn               3.6548706290       -1.3071799560        3.7735034500    0   0   0
Zn               3.6548706290        3.9215397550        3.7735034500    0   0   0
Zn               3.6141767685       -2.6150937188        6.1060336108
Zn               3.6215431614        2.6138898387        6.1034318122
Zn               3.7178562740       -3.9222858760        8.5322239150
Zn               3.7490829140        1.3111595206        8.5310948091
Zn               3.6548706290        2.6143598370        1.5094013850    0   0   0
Zn               3.6548706290        7.8430795480        1.5094013850    0   0   0
Zn               3.6548706290        1.3071799000        3.7735034500    0   0   0
Zn               3.6548706290        6.5358996110        3.7735034500    0   0   0
Zn               3.6113543845        0.0020963520        6.1123404908
Zn               3.6147062348        5.2248896214        6.1118259084
Zn               3.7112737249       -1.3078149146        8.5320994017
Zn               3.7461229071        3.9142964287        8.5364412099
Zn               8.5280314680       -0.0000000190        1.5094013850    0   0   0
Zn               8.5280314680        5.2287196920        1.5094013850    0   0   0
Zn               8.5280314680       -1.3071799560        3.7735034500    0   0   0
Zn               8.5280314680        3.9215397550        3.7735034500    0   0   0
Zn               8.5014010652       -2.6158150889        6.1079680368
Zn               8.5112614308        2.6134067927        6.0989286073
Zn               8.5471774983       -3.9234079513        8.5293582394
Zn               8.5170487664        1.3109241112        8.5123497121
Zn               8.5280314680        2.6143598370        1.5094013850    0   0   0
Zn               8.5280314680        7.8430795480        1.5094013850    0   0   0
Zn               8.5280314680        1.3071799000        3.7735034500    0   0   0
Zn               8.5280314680        6.5358996110        3.7735034500    0   0   0
Zn               8.5096719268        0.0016786571        6.1090760225
Zn               8.5131835192        5.2255365655        6.1130624135
Zn               8.5553833072       -1.3074580574        8.5264135060
Zn               8.5038276038        3.9133269785        8.5215370364
O                6.2198993889        2.4924296941       11.5601009982
H                7.1688681654        2.3422714050       11.7631138905
H                5.7821380724        1.6454482328       11.7951646377
End final coordinates

     Writing all to output data dir ./tmp/Zn100_optimized_topsite_H2O.save/ :
     XML data file, charge density, pseudopotentials, collected wavefunctions

     General routines

     Parallel routines

     PAW routines

   This run was terminated on:   5: 5:55  25Mar2025

   JOB DONE.
Note: The following floating-point exceptions are signalling: IEEE_DENORMAL
Note: The following floating-point exceptions are signalling: IEEE_DENORMAL
Note: The following floating-point exceptions are signalling: IEEE_DENORMAL
Note: The following floating-point exceptions are signalling: IEEE_DENORMAL
Note: The following floating-point exceptions are signalling: IEEE_DENORMAL
Note: The following floating-point exceptions are signalling: IEEE_DENORMAL
Note: The following floating-point exceptions are signalling: IEEE_DENORMAL
Note: The following floating-point exceptions are signalling: IEEE_DENORMAL
Note: The following floating-point exceptions are signalling: IEEE_DENORMAL
Note: The following floating-point exceptions are signalling: IEEE_DENORMAL
Note: The following floating-point exceptions are signalling: IEEE_DENORMAL
Note: The following floating-point exceptions are signalling: IEEE_DENORMAL