     Program PWSCF v.7.3.1 starts on  5Apr2025 at  2:17: 7

     Waiting for input...
     Reading input from standard input
Warning: card &CELL ignored
Warning: card   CELL_DOFREE = 'ALL' ignored
Warning: card / ignored

     Current dimensions of program PWSCF are:
     Max number of different atomic species (ntypx) = 10
     Max number of k-points (npk) =  40000
     Max angular momentum in pseudopotentials (lmaxx) =  4

     File ./tmp/05_Zn002_ABN_topsite_tilted_edgeon.update deleted, as requested

     File ./tmp/05_Zn002_ABN_topsite_tilted_edgeon.bfgs deleted, as requested
     file C.pbe-n-kjpaw_psl.1.0.0.UPF: wavefunction(s)  2S 2P renormalized

     R & G space division:  proc/nbgrp/npool/nimage =      33
     Subspace diagonalization in iterative solution of the eigenvalue problem:
     one sub-group per band group will be used

     Using Slab Decomposition

     bravais-lattice index     =            0
     lattice parameter (alat)  =      19.7617  a.u.
     unit-cell volume          =   15176.5939 (a.u.)^3
     number of atoms/cell      =           63
     number of atomic types    =            4
     number of electrons       =      1004.00
     number of Kohn-Sham states=          602
     kinetic-energy cutoff     =      40.0000  Ry
     charge density cutoff     =     280.0000  Ry
     scf convergence threshold =      1.0E-06
     mixing beta               =       0.4000
     number of iterations used =            8  plain     mixing
     energy convergence thresh.=      1.0E-05
     force convergence thresh. =      5.0E-04
     Exchange-correlation= PBE
                           (   1   4   3   4   0   0   0)
     nstep                     =          500

     celldm(1)=  19.761696  celldm(2)=   0.000000  celldm(3)=   0.000000
     celldm(4)=   0.000000  celldm(5)=   0.000000  celldm(6)=   0.000000

     crystal axes: (cart. coord. in units of alat)
               a(1) = (   1.000000   0.000000   0.000000 )
               a(2) = (  -0.500000   0.866025   0.000000 )
               a(3) = (   0.000000   0.000000   2.270759 )

     reciprocal axes: (cart. coord. in units 2 pi/alat)
               b(1) = (  1.000000  0.577350 -0.000000 )
               b(2) = (  0.000000  1.154701  0.000000 )
               b(3) = (  0.000000 -0.000000  0.440381 )

     PseudoPot. # 1 for Zn read from file:
     /home/ys/qepseudo/SSSP_1.3.0_PBE_efficiency/Zn_pbe_v1.uspp.F.UPF
     MD5 check sum: df62231357ef9e81f77b2b3087fa5675
     Pseudo is Ultrasoft, Zval = 20.0
     Generated by new atomic code, or converted to UPF format
     Using radial grid of  943 points,  6 beta functions with:
                l(1) =   0
                l(2) =   0
                l(3) =   1
                l(4) =   1
                l(5) =   2
                l(6) =   2
     Q(r) pseudized with  8 coefficients,  rinner =    1.100   1.100   1.100
                                                       1.100   1.100

     PseudoPot. # 2 for N  read from file:
     /home/ys/qepseudo/SSSP_1.3.0_PBE_efficiency/N.pbe-n-radius_5.UPF
     MD5 check sum: 16739722b17309cd8fe442a2ace49922
     Pseudo is Ultrasoft + core correction, Zval =  5.0
     Generated using "atomic" code by A. Dal Corso  v.5.1
     Using radial grid of 1085 points,  4 beta functions with:
                l(1) =   0
                l(2) =   0
                l(3) =   1
                l(4) =   1
     Q(r) pseudized with 0 coefficients

     PseudoPot. # 3 for C  read from file:
     /home/ys/qepseudo/SSSP_1.3.0_PBE_efficiency/C.pbe-n-kjpaw_psl.1.0.0.UPF
     MD5 check sum: 5d2aebdfa2cae82b50a7e79e9516da0f
     Pseudo is Projector augmented-wave + core cor, Zval =  4.0
     Generated using "atomic" code by A. Dal Corso  v.5.1
     Shape of augmentation charge: PSQ
     Using radial grid of 1073 points,  4 beta functions with:
                l(1) =   0
                l(2) =   0
                l(3) =   1
                l(4) =   1
     Q(r) pseudized with 0 coefficients

     PseudoPot. # 4 for H  read from file:
     /home/ys/qepseudo/SSSP_1.3.0_PBE_efficiency/H.pbe-rrkjus_psl.1.0.0.UPF
     MD5 check sum: f52b6d4d1c606e5624b1dc7b2218f220
     Pseudo is Ultrasoft, Zval =  1.0
     Generated using "atomic" code by A. Dal Corso  v.5.1
     Using radial grid of  929 points,  2 beta functions with:
                l(1) =   0
                l(2) =   0
     Q(r) pseudized with 0 coefficients

     atomic species   valence    mass     pseudopotential
     Zn               20.00    65.38000     Zn( 1.00)
     N                 5.00    14.00674     N ( 1.00)
     C                 4.00    12.01070     C ( 1.00)
     H                 1.00     1.00794     H ( 1.00)

     No symmetry found

                                    s                        frac. trans.

      isym =  1     identity

 cryst.   s( 1) = (     1          0          0      )
                  (     0          1          0      )
                  (     0          0          1      )

 cart.    s( 1) = (  1.0000000  0.0000000  0.0000000 )
                  (  0.0000000  1.0000000  0.0000000 )
                  (  0.0000000  0.0000000  1.0000000 )

   Cartesian axes

     site n.     atom                  positions (alat units)
         1        Zn     tau(   1) = (   0.0000000   0.1443375   0.1164998  )
         2        Zn     tau(   2) = (   0.5000000   0.1443375   0.1164998  )
         3        Zn     tau(   3) = (  -0.0000122   0.1447295   0.5899179  )
         4        Zn     tau(   4) = (   0.5000094   0.1447829   0.5934418  )
         5        Zn     tau(   5) = (  -0.1250000   0.3608439   0.1164998  )
         6        Zn     tau(   6) = (   0.3750000   0.3608439   0.1164998  )
         7        Zn     tau(   7) = (  -0.1248849   0.3610468   0.5895810  )
         8        Zn     tau(   8) = (   0.3755169   0.3612329   0.5770007  )
         9        Zn     tau(   9) = (  -0.2500000   0.5773502   0.1164998  )
        10        Zn     tau(  10) = (   0.2500000   0.5773502   0.1164998  )
        11        Zn     tau(  11) = (  -0.2497708   0.5773642   0.5893991  )
        12        Zn     tau(  12) = (   0.2501266   0.5774117   0.5925711  )
        13        Zn     tau(  13) = (  -0.3750000   0.7938567   0.1164998  )
        14        Zn     tau(  14) = (   0.1250000   0.7938567   0.1164998  )
        15        Zn     tau(  15) = (  -0.3748712   0.7939498   0.5893470  )
        16        Zn     tau(  16) = (   0.1249309   0.7942025   0.5897018  )
        17        Zn     tau(  17) = (   0.2500000   0.1443375   0.1164998  )
        18        Zn     tau(  18) = (   0.7500000   0.1443375   0.1164998  )
        19        Zn     tau(  19) = (   0.2501866   0.1445873   0.5889016  )
        20        Zn     tau(  20) = (   0.7497864   0.1446326   0.5899890  )
        21        Zn     tau(  21) = (   0.1250000   0.3608439   0.1164998  )
        22        Zn     tau(  22) = (   0.6250000   0.3608439   0.1164998  )
        23        Zn     tau(  23) = (   0.1253274   0.3609715   0.5920700  )
        24        Zn     tau(  24) = (   0.6250380   0.3608410   0.5920863  )
        25        Zn     tau(  25) = (   0.0000000   0.5773502   0.1164998  )
        26        Zn     tau(  26) = (   0.5000000   0.5773502   0.1164998  )
        27        Zn     tau(  27) = (   0.0002351   0.5775285   0.5900751  )
        28        Zn     tau(  28) = (   0.4999504   0.5773510   0.5921259  )
        29        Zn     tau(  29) = (  -0.1250000   0.7938567   0.1164998  )
        30        Zn     tau(  30) = (   0.3750000   0.7938567   0.1164998  )
        31        Zn     tau(  31) = (  -0.1246570   0.7942124   0.5898584  )
        32        Zn     tau(  32) = (   0.3748102   0.7940894   0.5894900  )
        33        Zn     tau(  33) = (   0.1249698   0.0723091   0.3545219  )
        34        Zn     tau(  34) = (   0.6249827   0.0723488   0.3531690  )
        35        Zn     tau(  35) = (   0.0000055   0.2889700   0.3534653  )
        36        Zn     tau(  36) = (   0.5005865   0.2886149   0.3518608  )
        37        Zn     tau(  37) = (  -0.1249731   0.5052991   0.3530500  )
        38        Zn     tau(  38) = (   0.3750154   0.5060075   0.3519242  )
        39        Zn     tau(  39) = (  -0.2500333   0.7218280   0.3535889  )
        40        Zn     tau(  40) = (   0.2499597   0.7217474   0.3535487  )
        41        Zn     tau(  41) = (   0.3752013   0.0723441   0.3537271  )
        42        Zn     tau(  42) = (   0.8748980   0.0723582   0.3529024  )
        43        Zn     tau(  43) = (   0.2495452   0.2887765   0.3522502  )
        44        Zn     tau(  44) = (   0.7498994   0.2889057   0.3532419  )
        45        Zn     tau(  45) = (   0.1251667   0.5053766   0.3534897  )
        46        Zn     tau(  46) = (   0.6248827   0.5052807   0.3533495  )
        47        Zn     tau(  47) = (   0.0001257   0.7219057   0.3534395  )
        48        Zn     tau(  48) = (   0.4999676   0.7216502   0.3538226  )
        49        C      tau(  49) = (   0.4447566   0.5194494   1.3865383  )
        50        C      tau(  50) = (   0.4204738   0.4635194   1.2647004  )
        51        C      tau(  51) = (   0.4594131   0.5253723   1.1514749  )
        52        C      tau(  52) = (   0.3554209   0.3458906   1.2551753  )
        53        C      tau(  53) = (   0.4334602   0.4720097   1.0329393  )
        54        C      tau(  54) = (   0.3294145   0.2924094   1.1367223  )
        55        C      tau(  55) = (   0.3669360   0.3549320   1.0232278  )
        56        N      tau(  56) = (   0.4639736   0.5654917   1.4864670  )
        57        N      tau(  57) = (   0.3430437   0.3012095   0.9053140  )
        58        H      tau(  58) = (   0.2744019   0.2330194   0.8991929  )
        59        H      tau(  59) = (   0.3467141   0.3595743   0.8276907  )
        60        H      tau(  60) = (   0.3247455   0.2971617   1.3420171  )
        61        H      tau(  61) = (   0.5097126   0.6164709   1.1576153  )
        62        H      tau(  62) = (   0.2791492   0.2010484   1.1311889  )
        63        H      tau(  63) = (   0.4643513   0.5210019   0.9459833  )

     DFT-D3 Dispersion Correction (3-body terms):
       Reference C6 values for interpolation:

         atom   Coordination number   C6
         H          0.912             6.05
         H          0.000            15.18
         C          0.000            98.23
         C          0.987            86.49
         C          1.998            58.72
         C          2.999            51.56
         C          3.984            36.41
         N          0.000            50.54
         N          0.994            44.25
         N          2.014            39.35
         N          2.990            31.16
         Zn         0.000           681.04
         Zn         1.942           306.91

       Values used:

         atom   Coordination number  R0_AB[au]  C6      C8
         Zn         6.754            3.053    306.91  23930.67
         Zn         6.785            3.053    306.91  23930.67
         Zn         6.780            3.053    306.91  23930.67
         Zn         6.637            3.053    306.91  23930.67
[...]
     atom   18 type  1   force =     0.00000000   -0.00000000   -0.00000000
     atom   19 type  1   force =     0.00000479   -0.00001886    0.00003470
     atom   20 type  1   force =    -0.00001243    0.00000662    0.00001813
     atom   21 type  1   force =    -0.00000000    0.00000000   -0.00000000
     atom   22 type  1   force =     0.00000000   -0.00000000   -0.00000000
     atom   23 type  1   force =    -0.00002329    0.00000622    0.00001570
     atom   24 type  1   force =     0.00001803   -0.00000314    0.00003446
     atom   25 type  1   force =     0.00000000    0.00000000   -0.00000000
     atom   26 type  1   force =    -0.00000000    0.00000000   -0.00000000
     atom   27 type  1   force =    -0.00001818    0.00001603    0.00001673
     atom   28 type  1   force =     0.00001617    0.00000761    0.00002779
     atom   29 type  1   force =     0.00000000   -0.00000000   -0.00000000
     atom   30 type  1   force =    -0.00000000    0.00000000   -0.00000000
     atom   31 type  1   force =     0.00000699   -0.00000439    0.00002685
     atom   32 type  1   force =    -0.00001102    0.00001295    0.00000566
     atom   33 type  1   force =    -0.00002838   -0.00000817    0.00000490
     atom   34 type  1   force =     0.00002789   -0.00002747    0.00000229
     atom   35 type  1   force =    -0.00002962    0.00000499   -0.00001535
     atom   36 type  1   force =     0.00003694   -0.00001290    0.00004468
     atom   37 type  1   force =     0.00001224    0.00000181   -0.00000888
     atom   38 type  1   force =    -0.00001701    0.00004874    0.00000928
     atom   39 type  1   force =     0.00001165   -0.00000612    0.00000704
     atom   40 type  1   force =    -0.00001838    0.00002089   -0.00003369
     atom   41 type  1   force =     0.00000939   -0.00003976    0.00004415
     atom   42 type  1   force =    -0.00001473    0.00000244   -0.00003885
     atom   43 type  1   force =    -0.00004191    0.00000010    0.00002795
     atom   44 type  1   force =     0.00002815   -0.00000770    0.00000503
     atom   45 type  1   force =    -0.00003058    0.00003066   -0.00001200
     atom   46 type  1   force =     0.00003092    0.00001252    0.00002318
     atom   47 type  1   force =     0.00001435   -0.00000782   -0.00000580
     atom   48 type  1   force =    -0.00001337    0.00002256   -0.00001931
     atom   49 type  3   force =     0.00000415   -0.00000350   -0.00000050
     atom   50 type  3   force =     0.00000094   -0.00000381    0.00000670
     atom   51 type  3   force =    -0.00000020   -0.00000265    0.00000502
     atom   52 type  3   force =     0.00000490    0.00000553    0.00000592
     atom   53 type  3   force =     0.00000430    0.00000261    0.00000386
     atom   54 type  3   force =     0.00000029   -0.00000399    0.00000755
     atom   55 type  3   force =     0.00000883   -0.00000167    0.00000611
     atom   56 type  2   force =     0.00000603   -0.00000256   -0.00000036
     atom   57 type  2   force =     0.00000523   -0.00001151   -0.00000572
     atom   58 type  4   force =    -0.00000046   -0.00000157   -0.00000041
     atom   59 type  4   force =     0.00000078    0.00000011   -0.00000100
     atom   60 type  4   force =     0.00000029    0.00000070    0.00000096
     atom   61 type  4   force =    -0.00000030   -0.00000022    0.00000014
     atom   62 type  4   force =    -0.00000008    0.00000005    0.00000099
     atom   63 type  4   force =     0.00000048    0.00000066    0.00000019

     DFT-D3 dispersion contribution to forces:
     atom    1 type  1   force =    -0.00000206   -0.00001111    0.00264874
     atom    2 type  1   force =    -0.00001527    0.00002212    0.00269886
     atom    3 type  1   force =     0.00020810    0.00008844   -0.00238370
     atom    4 type  1   force =    -0.00043001    0.00045829   -0.00165618
     atom    5 type  1   force =     0.00000396   -0.00000305    0.00264124
     atom    6 type  1   force =    -0.00000884   -0.00000308    0.00275415
     atom    7 type  1   force =     0.00002075   -0.00000331   -0.00259043
     atom    8 type  1   force =     0.00001428   -0.00007270   -0.00238217
     atom    9 type  1   force =    -0.00001182   -0.00000028    0.00265852
     atom   10 type  1   force =     0.00002197   -0.00001487    0.00267572
     atom   11 type  1   force =    -0.00011795   -0.00003551   -0.00246537
     atom   12 type  1   force =     0.00030179   -0.00051686   -0.00173171
     atom   13 type  1   force =    -0.00000006    0.00000772    0.00265154
     atom   14 type  1   force =     0.00000412   -0.00000533    0.00262604
     atom   15 type  1   force =     0.00001057    0.00002513   -0.00244002
     atom   16 type  1   force =    -0.00000636    0.00000859   -0.00260365
     atom   17 type  1   force =     0.00000389    0.00002477    0.00272059
     atom   18 type  1   force =     0.00001120   -0.00000775    0.00262813
     atom   19 type  1   force =     0.00024503    0.00049648   -0.00167376
     atom   20 type  1   force =    -0.00007975    0.00004029   -0.00258072
     atom   21 type  1   force =     0.00002935   -0.00001702    0.00269342
     atom   22 type  1   force =    -0.00002803   -0.00001079    0.00268785
     atom   23 type  1   force =     0.00062983   -0.00012945   -0.00161795
     atom   24 type  1   force =    -0.00055256    0.00004137   -0.00185267
     atom   25 type  1   force =     0.00000890   -0.00000553    0.00264102
     atom   26 type  1   force =    -0.00002295   -0.00001943    0.00268333
     atom   27 type  1   force =     0.00008748   -0.00005548   -0.00254615
     atom   28 type  1   force =    -0.00028529   -0.00045320   -0.00158949
     atom   29 type  1   force =    -0.00000435    0.00001829    0.00267065
     atom   30 type  1   force =    -0.00000226    0.00001238    0.00262293
     atom   31 type  1   force =    -0.00003236    0.00018011   -0.00243389
     atom   32 type  1   force =     0.00002642   -0.00013973   -0.00245821
     atom   33 type  1   force =     0.00001379    0.00000833    0.00005617
     atom   34 type  1   force =     0.00000118    0.00000189    0.00001686
     atom   35 type  1   force =    -0.00001628    0.00001739   -0.00000067
     atom   36 type  1   force =    -0.00000913    0.00003220    0.00011138
     atom   37 type  1   force =     0.00000073   -0.00001190    0.00003991
     atom   38 type  1   force =    -0.00000101   -0.00002480    0.00014745
     atom   39 type  1   force =    -0.00001369   -0.00002513   -0.00000991
     atom   40 type  1   force =     0.00000420   -0.00001143    0.00002246
     atom   41 type  1   force =    -0.00001161   -0.00010495   -0.00009156
     atom   42 type  1   force =     0.00000206    0.00000012   -0.00000534
     atom   43 type  1   force =     0.00003207    0.00000780    0.00021464
     atom   44 type  1   force =    -0.00002017   -0.00000172    0.00005494
     atom   45 type  1   force =    -0.00009408    0.00005539   -0.00008122
     atom   46 type  1   force =     0.00010191    0.00006685   -0.00010363
     atom   47 type  1   force =     0.00000988    0.00001977    0.00005523
     atom   48 type  1   force =     0.00000278   -0.00001441    0.00003860
     atom   49 type  3   force =     0.00003382    0.00007786    0.00004472
     atom   50 type  3   force =     0.00003206    0.00005006   -0.00014931
     atom   51 type  3   force =     0.00004946    0.00010442   -0.00023798
     atom   52 type  3   force =    -0.00010423   -0.00016630    0.00005163
     atom   53 type  3   force =     0.00016433    0.00028232   -0.00085466
     atom   54 type  3   force =    -0.00004871   -0.00008206   -0.00008113
     atom   55 type  3   force =    -0.00002050   -0.00007919   -0.00100813
     atom   56 type  2   force =    -0.00008305   -0.00018521   -0.00026473
     atom   57 type  2   force =     0.00000327   -0.00000229   -0.00191857
     atom   58 type  4   force =     0.00000189    0.00003866   -0.00149357
     atom   59 type  4   force =    -0.00011437   -0.00007431   -0.00118325
     atom   60 type  4   force =     0.00001891    0.00002992   -0.00001333
     atom   61 type  4   force =     0.00002303    0.00004110   -0.00006673
     atom   62 type  4   force =    -0.00000522   -0.00000691   -0.00007441
     atom   63 type  4   force =     0.00001897    0.00003705   -0.00091250

     Total force =     0.001598     Total SCF correction =     0.000202

     DFT-D3 dispersion Force =     0.014345
     SCF correction compared to forces is large: reduce conv_thr to get better values

     Computing stress (Cartesian axis) and pressure

     negative rho (up, down):  3.451E-03 0.000E+00
          total   stress  (Ry/bohr**3)                   (kbar)     P=       -9.18
  -0.00009096   0.00000038  -0.00000006          -13.38        0.06       -0.01
   0.00000038  -0.00009059   0.00000027            0.06      -13.33        0.04
  -0.00000006   0.00000027  -0.00000575           -0.01        0.04       -0.85

     kinetic stress (kbar)  13006.53    -30.31     -4.58
                              -30.31  12972.03     -6.70
                               -4.58     -6.70  13022.44

     local   stress (kbar)**********   -937.27   -234.09
                             -937.27**********   -572.63
                             -234.09   -572.631170969.52

     nonloc. stress (kbar)  -1181.31      2.35      0.58
                                2.35  -1178.21      1.70
                                0.58      1.70  -1219.11

     hartree stress (kbar) 606572.98    361.51     96.83
                              361.51 607032.04    237.12
                               96.83    237.12-549619.25

     exc-cor stress (kbar)  -6328.03      1.53      0.20
                                1.53  -6326.17      0.52
                                0.20      0.52  -6333.76

     corecor stress (kbar)    -82.87     -0.46     -0.04
                               -0.46    -83.45     -0.17
                               -0.04     -0.17    -83.96

     ewald   stress (kbar) 547461.05    602.70    141.10
                              602.70 548212.57    340.21
                              141.10    340.21-626732.18

     hubbard stress (kbar)      0.00      0.00      0.00
                                0.00      0.00      0.00
                                0.00      0.00      0.00

     DFT-D   stress (kbar)    -10.34      0.00     -0.00
                                0.00    -10.34     -0.00
                               -0.00     -0.00     -4.55

     XDM     stress (kbar)      0.00      0.00      0.00
                                0.00      0.00      0.00
                                0.00      0.00      0.00

     dft-nl  stress (kbar)      0.00      0.00      0.00
                                0.00      0.00      0.00
                                0.00      0.00      0.00

     TS-vdW  stress (kbar)      0.00      0.00      0.00
                                0.00      0.00      0.00
                                0.00      0.00      0.00

     MDB     stress (kbar)      0.00      0.00      0.00
                                0.00      0.00      0.00
                                0.00      0.00      0.00

     3D-RISM stress (kbar)      0.00      0.00      0.00
                                0.00      0.00      0.00
                                0.00      0.00      0.00

     Energy error            =      3.8E-06 Ry
     Gradient error          =      5.0E-04 Ry/Bohr

     bfgs converged in  17 scf cycles and  16 bfgs steps
     (criteria: energy <  1.0E-05 Ry, force <  5.0E-04 Ry/Bohr)

     End of BFGS Geometry Optimization

     Final energy             =  -22331.5320681776 Ry

     File ./tmp/05_Zn002_ABN_topsite_tilted_edgeon.bfgs deleted, as requested
Begin final coordinates

ATOMIC_POSITIONS (angstrom)
Zn               0.0000000000        1.5094010000        1.2182900000    0   0   0
Zn               5.2287200000        1.5094010000        1.2182900000    0   0   0
Zn               0.0014113615        1.5109374357        6.1795454757
Zn               5.2278510493        1.5126562460        6.2026554474
Zn              -1.3071800000        3.7735030000        1.2182900000    0   0   0
Zn               3.9215400000        3.7735030000        1.2182900000    0   0   0
Zn              -1.3054656736        3.7749803509        6.1702813520
Zn               3.9265827987        3.7764334361        6.0332834506
Zn              -2.6143600000        6.0376050000        1.2182900000    0   0   0
Zn               2.6143600000        6.0376050000        1.2182900000    0   0   0
Zn              -2.6138510411        6.0388880332        6.1789605778
Zn               2.6173931766        6.0372140346        6.1873610748
Zn              -3.9215400000        8.3017080000        1.2182900000    0   0   0
Zn               1.3071800000        8.3017080000        1.2182900000    0   0   0
Zn              -3.9206494438        8.3023166034        6.1747832739
Zn               1.3073884232        8.3033960922        6.1715619327
Zn               2.6143600000        1.5094010000        1.2182900000    0   0   0
Zn               7.8430800000        1.5094010000        1.2182900000    0   0   0
Zn               2.6152578963        1.5096061763        6.1392352378
Zn               7.8427066744        1.5111249928        6.1736946307
Zn               1.3071800000        3.7735030000        1.2182900000    0   0   0
Zn               6.5359000000        3.7735030000        1.2182900000    0   0   0
Zn               1.3114278882        3.7732762807        6.1835102527
Zn               6.5363094135        3.7737928298        6.1806576637
Zn               0.0000000000        6.0376050000        1.2182900000    0   0   0
Zn               5.2287200000        6.0376050000        1.2182900000    0   0   0
Zn               0.0022341684        6.0385746747        6.1757464297
Zn               5.2291561119        6.0377281663        6.1838429032
Zn              -1.3071800000        8.3017080000        1.2182900000    0   0   0
Zn               3.9215400000        8.3017080000        1.2182900000    0   0   0
Zn              -1.3055926813        8.3045755661        6.1762991401
Zn               3.9219385093        8.3026805293        6.1806826147
Zn               1.3059059914        0.7532796513        3.6929595406
Zn               6.5374332592        0.7543701924        3.7019622105
Zn              -0.0012014153        3.0198780856        3.6992353330
Zn               5.2362935251        3.0163265947        3.6790971172
Zn              -1.3065866981        5.2836658306        3.7006836722
Zn               3.9227851754        5.2917206421        3.6792113411
Zn              -2.6138005267        7.5470775745        3.6957138696
Zn               2.6143362326        7.5489475403        3.7017003811
Zn               3.9244500464        0.7526731354        3.6869762468
Zn               9.1500597517        0.7553987526        3.6964916876
Zn               2.6098105742        3.0183633377        3.6734767286
Zn               7.8449282096        3.0195387223        3.7008466462
Zn               1.3067872699        5.2851870951        3.7007753748
Zn               6.5380076914        5.2848752452        3.6967361365
Zn               0.0012598868        7.5480557990        3.7004135867
Zn               5.2297935897        7.5480729574        3.7020554098
C                4.6618092455        5.4322081889       14.4935061119
C                4.3938758586        4.8510064531       13.2214746862
C                4.7981464088        5.4980497775       12.0367748796
C                3.7114993824        3.6221605474       13.1254146999
C                4.5218618365        4.9406732165       10.7982058019
C                3.4352231441        3.0642456108       11.8872447286
C                3.8278020501        3.7155376601       10.6992258354
N                4.8748939185        5.9127597391       15.5363796855
N                3.5857591848        3.1479033355        9.4677780904
H                2.8812239949        2.4225830340        9.3990858912
H                3.6293148024        3.7482146024        8.6493217722
H                3.3984295294        3.1098545631       14.0349311164
H                5.3312405226        6.4466621674       12.1006421278
H                2.9069747078        2.1108235634       11.8290892286
H                4.8411169756        5.4509162214        9.8867292248
End final coordinates

     Writing all to output data dir ./tmp/05_Zn002_ABN_topsite_tilted_edgeon.save/ :
     XML data file, charge density, pseudopotentials, collected wavefunctions

     General routines

     Parallel routines

     PAW routines

   This run was terminated on:  19:42:15   5Apr2025

   JOB DONE.