     Program PWSCF v.7.3.1 starts on 27Mar2025 at 20:39:59

     Waiting for input...
     Reading input from standard input
Warning: card &CELL ignored
Warning: card   CELL_DOFREE = 'ALL' ignored
Warning: card / ignored

     Current dimensions of program PWSCF are:
     Max number of different atomic species (ntypx) = 10
     Max number of k-points (npk) =  40000
     Max angular momentum in pseudopotentials (lmaxx) =  4

     R & G space division:  proc/nbgrp/npool/nimage =      33
     Subspace diagonalization in iterative solution of the eigenvalue problem:
     one sub-group per band group will be used

     Using Slab Decomposition

     bravais-lattice index     =            0
     lattice parameter (alat)  =      18.4179  a.u.
     unit-cell volume          =   15858.2170 (a.u.)^3
     number of atoms/cell      =           64
     number of atomic types    =            1
     number of electrons       =      1280.00
     number of Kohn-Sham states=          768
     kinetic-energy cutoff     =      40.0000  Ry
     charge density cutoff     =     280.0000  Ry
     scf convergence threshold =      1.0E-06
     mixing beta               =       0.4000
     number of iterations used =            8  plain     mixing
     energy convergence thresh.=      1.0E-05
     force convergence thresh. =      5.0E-04
     Exchange-correlation= SLA  PW   PBE  PBE
                           (   1   4   3   4   0   0   0)
     nstep                     =          100

     celldm(1)=  18.417879  celldm(2)=   0.000000  celldm(3)=   0.000000
     celldm(4)=   0.000000  celldm(5)=   0.000000  celldm(6)=   0.000000

     crystal axes: (cart. coord. in units of alat)
               a(1) = (   1.000000   0.000000   0.000000 )
               a(2) = (   0.000000   1.072963   0.000000 )
               a(3) = (   0.000000  -1.365810   2.365652 )

     reciprocal axes: (cart. coord. in units 2 pi/alat)
               b(1) = (  1.000000  0.000000 -0.000000 )
               b(2) = ( -0.000000  0.931999  0.538090 )
               b(3) = (  0.000000  0.000000  0.422716 )

     PseudoPot. # 1 for Zn read from file:
     /home/ys/qepseudo/SSSP_1.3.0_PBE_efficiency/Zn_pbe_v1.uspp.F.UPF
     MD5 check sum: df62231357ef9e81f77b2b3087fa5675
     Pseudo is Ultrasoft, Zval = 20.0
     Generated by new atomic code, or converted to UPF format
     Using radial grid of  943 points,  6 beta functions with:
                l(1) =   0
                l(2) =   0
                l(3) =   1
                l(4) =   1
                l(5) =   2
                l(6) =   2
     Q(r) pseudized with  8 coefficients,  rinner =    1.100   1.100   1.100
                                                       1.100   1.100

     atomic species   valence    mass     pseudopotential
     Zn               20.00    65.38000     Zn( 1.00)

     No symmetry found

                                    s                        frac. trans.

      isym =  1     identity

 cryst.   s( 1) = (     1          0          0      )
                  (     0          1          0      )
                  (     0          0          1      )

 cart.    s( 1) = (  1.0000000  0.0000000  0.0000000 )
                  (  0.0000000  1.0000000 -0.0000000 )
                  (  0.0000000  0.0000000  1.0000000 )

   Cartesian axes

     site n.     atom                  positions (alat units)
         1        Zn     tau(   1) = (   0.1250000   0.1341203   0.0774344  )
         2        Zn     tau(   2) = (   0.1250000   0.6706017   0.0774344  )
         3        Zn     tau(   3) = (   0.1250000   0.0000000   0.3097376  )
         4        Zn     tau(   4) = (   0.1250000   0.5364813   0.3097376  )
         5        Zn     tau(   5) = (   0.1250290  -0.1341417   0.5820584  )
         6        Zn     tau(   6) = (   0.1250405   0.4023616   0.5819647  )
         7        Zn     tau(   7) = (   0.1250408  -0.2682706   0.8528810  )
         8        Zn     tau(   8) = (   0.1250466   0.2682807   0.8528293  )
         9        Zn     tau(   9) = (   0.1250000   0.4023610   0.0774344  )
        10        Zn     tau(  10) = (   0.1250000   0.9388423   0.0774344  )
        11        Zn     tau(  11) = (   0.1250000   0.2682407   0.3097376  )
        12        Zn     tau(  12) = (   0.1250000   0.8047220   0.3097376  )
        13        Zn     tau(  13) = (   0.1250408   0.1341312   0.5819983  )
        14        Zn     tau(  14) = (   0.1250279   0.6705889   0.5820360  )
        15        Zn     tau(  15) = (   0.1250442  -0.0000368   0.8528823  )
        16        Zn     tau(  16) = (   0.1250426   0.5365266   0.8528201  )
        17        Zn     tau(  17) = (   0.6250000   0.1341203   0.0774344  )
        18        Zn     tau(  18) = (   0.6250000   0.6706017   0.0774344  )
        19        Zn     tau(  19) = (   0.6250000   0.0000000   0.3097376  )
        20        Zn     tau(  20) = (   0.6250000   0.5364813   0.3097376  )
        21        Zn     tau(  21) = (   0.6249675  -0.1341249   0.5822560  )
        22        Zn     tau(  22) = (   0.6249625   0.4023466   0.5821830  )
        23        Zn     tau(  23) = (   0.6249647  -0.2682775   0.8528614  )
        24        Zn     tau(  24) = (   0.6249499   0.2682885   0.8528196  )
        25        Zn     tau(  25) = (   0.6250000   0.4023610   0.0774344  )
        26        Zn     tau(  26) = (   0.6250000   0.9388423   0.0774344  )
        27        Zn     tau(  27) = (   0.6250000   0.2682407   0.3097376  )
        28        Zn     tau(  28) = (   0.6250000   0.8047220   0.3097376  )
        29        Zn     tau(  29) = (   0.6249643   0.1341641   0.5822135  )
        30        Zn     tau(  30) = (   0.6249672   0.6705553   0.5822335  )
        31        Zn     tau(  31) = (   0.6249591  -0.0000159   0.8528717  )
        32        Zn     tau(  32) = (   0.6249573   0.5365055   0.8528056  )
        33        Zn     tau(  33) = (   0.3750000  -0.0000000   0.1548688  )
        34        Zn     tau(  34) = (   0.3750000   0.5364813   0.1548688  )
        35        Zn     tau(  35) = (   0.3750000  -0.1341203   0.3871721  )
        36        Zn     tau(  36) = (   0.3750000   0.4023610   0.3871721  )
        37        Zn     tau(  37) = (   0.3749795  -0.2682828   0.6236034  )
        38        Zn     tau(  38) = (   0.3749869   0.2682730   0.6235323  )
        39        Zn     tau(  39) = (   0.3751136  -0.4023763   0.8687437  )
        40        Zn     tau(  40) = (   0.3751189   0.1341221   0.8687719  )
        41        Zn     tau(  41) = (   0.3750000   0.2682407   0.1548688  )
        42        Zn     tau(  42) = (   0.3750000   0.8047220   0.1548688  )
        43        Zn     tau(  43) = (   0.3750000   0.1341203   0.3871721  )
        44        Zn     tau(  44) = (   0.3750000   0.6706017   0.3871721  )
        45        Zn     tau(  45) = (   0.3749870   0.0000171   0.6235532  )
        46        Zn     tau(  46) = (   0.3749914   0.5364504   0.6235764  )
        47        Zn     tau(  47) = (   0.3751105  -0.1341730   0.8687759  )
        48        Zn     tau(  48) = (   0.3751210   0.4023978   0.8687386  )
        49        Zn     tau(  49) = (   0.8750000  -0.0000000   0.1548688  )
        50        Zn     tau(  50) = (   0.8750000   0.5364813   0.1548688  )
        51        Zn     tau(  51) = (   0.8750000  -0.1341203   0.3871721  )
        52        Zn     tau(  52) = (   0.8750000   0.4023610   0.3871721  )
        53        Zn     tau(  53) = (   0.8750137  -0.2682816   0.6236127  )
        54        Zn     tau(  54) = (   0.8750145   0.2682702   0.6235379  )
        55        Zn     tau(  55) = (   0.8748930  -0.4023645   0.8688529  )
        56        Zn     tau(  56) = (   0.8748831   0.1341076   0.8688814  )
        57        Zn     tau(  57) = (   0.8750000   0.2682407   0.1548688  )
        58        Zn     tau(  58) = (   0.8750000   0.8047220   0.1548688  )
        59        Zn     tau(  59) = (   0.8750000   0.1341203   0.3871721  )
        60        Zn     tau(  60) = (   0.8750000   0.6706017   0.3871721  )
        61        Zn     tau(  61) = (   0.8750191  -0.0000014   0.6235616  )
        62        Zn     tau(  62) = (   0.8750146   0.5364705   0.6235843  )
        63        Zn     tau(  63) = (   0.8748974  -0.1341803   0.8688835  )
        64        Zn     tau(  64) = (   0.8748800   0.4024084   0.8688483  )

   Crystallographic axes

     site n.     atom                  positions (cryst. coord.)
         1        Zn     tau(   1) = (  0.1250000  0.1666667  0.0327328  )
         2        Zn     tau(   2) = (  0.1250000  0.6666667  0.0327328  )
         3        Zn     tau(   3) = (  0.1250000  0.1666667  0.1309312  )
         4        Zn     tau(   4) = (  0.1250000  0.6666667  0.1309312  )
         5        Zn     tau(   5) = (  0.1250290  0.1881798  0.2460456  )
         6        Zn     tau(   6) = (  0.1250405  0.6881498  0.2460060  )
         7        Zn     tau(   7) = (  0.1250408  0.2088987  0.3605268  )
         8        Zn     tau(   8) = (  0.1250466  0.7089361  0.3605049  )
         9        Zn     tau(   9) = (  0.1250000  0.4166667  0.0327328  )
        10        Zn     tau(  10) = (  0.1250000  0.9166667  0.0327328  )
        11        Zn     tau(  11) = (  0.1250000  0.4166667  0.1309312  )
        12        Zn     tau(  12) = (  0.1250000  0.9166667  0.1309312  )
        13        Zn     tau(  13) = (  0.1250408  0.4381774  0.2460202  )
        14        Zn     tau(  14) = (  0.1250279  0.9381757  0.2460362  )
        15        Zn     tau(  15) = (  0.1250442  0.4588930  0.3605273  )
        16        Zn     tau(  16) = (  0.1250426  0.9589360  0.3605011  )
        17        Zn     tau(  17) = (  0.6250000  0.1666667  0.0327328  )
        18        Zn     tau(  18) = (  0.6250000  0.6666667  0.0327328  )
        19        Zn     tau(  19) = (  0.6250000  0.1666667  0.1309312  )
        20        Zn     tau(  20) = (  0.6250000  0.6666667  0.1309312  )
        21        Zn     tau(  21) = (  0.6249675  0.1883018  0.2461292  )
        22        Zn     tau(  22) = (  0.6249625  0.6882533  0.2460983  )
        23        Zn     tau(  23) = (  0.6249647  0.2088817  0.3605185  )
        24        Zn     tau(  24) = (  0.6249499  0.7089381  0.3605008  )
        25        Zn     tau(  25) = (  0.6250000  0.4166667  0.0327328  )
        26        Zn     tau(  26) = (  0.6250000  0.9166667  0.0327328  )
        27        Zn     tau(  27) = (  0.6250000  0.4166667  0.1309312  )
        28        Zn     tau(  28) = (  0.6250000  0.9166667  0.1309312  )
        29        Zn     tau(  29) = (  0.6249643  0.4383239  0.2461112  )
        30        Zn     tau(  30) = (  0.6249672  0.9382507  0.2461196  )
        31        Zn     tau(  31) = (  0.6249591  0.4589067  0.3605228  )
        32        Zn     tau(  32) = (  0.6249573  0.9589085  0.3604949  )
        33        Zn     tau(  33) = (  0.3750000  0.0833333  0.0654656  )
        34        Zn     tau(  34) = (  0.3750000  0.5833333  0.0654656  )
        35        Zn     tau(  35) = (  0.3750000  0.0833333  0.1636640  )
        36        Zn     tau(  36) = (  0.3750000  0.5833333  0.1636640  )
[...]
     atom   21 type  1   force =     0.00000000    0.00000000    0.00000000
     atom   22 type  1   force =     0.00000000    0.00000000    0.00000000
     atom   23 type  1   force =     0.00000000    0.00000000    0.00000000
     atom   24 type  1   force =     0.00000000    0.00000000    0.00000000
     atom   25 type  1   force =     0.00000000    0.00000000    0.00000000
     atom   26 type  1   force =     0.00000000    0.00000000    0.00000000
     atom   27 type  1   force =     0.00000000    0.00000000    0.00000000
     atom   28 type  1   force =     0.00000000    0.00000000    0.00000000
     atom   29 type  1   force =     0.00000000    0.00000000    0.00000000
     atom   30 type  1   force =     0.00000000    0.00000000    0.00000000
     atom   31 type  1   force =     0.00000000    0.00000000    0.00000000
     atom   32 type  1   force =     0.00000000    0.00000000    0.00000000
     atom   33 type  1   force =     0.00000000    0.00000000    0.00000000
     atom   34 type  1   force =     0.00000000    0.00000000    0.00000000
     atom   35 type  1   force =     0.00000000    0.00000000    0.00000000
     atom   36 type  1   force =     0.00000000    0.00000000    0.00000000
     atom   37 type  1   force =     0.00000000    0.00000000    0.00000000
     atom   38 type  1   force =     0.00000000    0.00000000    0.00000000
     atom   39 type  1   force =     0.00000000    0.00000000    0.00000000
     atom   40 type  1   force =     0.00000000    0.00000000    0.00000000
     atom   41 type  1   force =     0.00000000    0.00000000    0.00000000
     atom   42 type  1   force =     0.00000000    0.00000000    0.00000000
     atom   43 type  1   force =     0.00000000    0.00000000    0.00000000
     atom   44 type  1   force =     0.00000000    0.00000000    0.00000000
     atom   45 type  1   force =     0.00000000    0.00000000    0.00000000
     atom   46 type  1   force =     0.00000000    0.00000000    0.00000000
     atom   47 type  1   force =     0.00000000    0.00000000    0.00000000
     atom   48 type  1   force =     0.00000000    0.00000000    0.00000000
     atom   49 type  1   force =     0.00000000    0.00000000    0.00000000
     atom   50 type  1   force =     0.00000000    0.00000000    0.00000000
     atom   51 type  1   force =     0.00000000    0.00000000    0.00000000
     atom   52 type  1   force =     0.00000000    0.00000000    0.00000000
     atom   53 type  1   force =     0.00000000    0.00000000    0.00000000
     atom   54 type  1   force =     0.00000000    0.00000000    0.00000000
     atom   55 type  1   force =     0.00000000    0.00000000    0.00000000
     atom   56 type  1   force =     0.00000000    0.00000000    0.00000000
     atom   57 type  1   force =     0.00000000    0.00000000    0.00000000
     atom   58 type  1   force =     0.00000000    0.00000000    0.00000000
     atom   59 type  1   force =     0.00000000    0.00000000    0.00000000
     atom   60 type  1   force =     0.00000000    0.00000000    0.00000000
     atom   61 type  1   force =     0.00000000    0.00000000    0.00000000
     atom   62 type  1   force =     0.00000000    0.00000000    0.00000000
     atom   63 type  1   force =     0.00000000    0.00000000    0.00000000
     atom   64 type  1   force =     0.00000000    0.00000000    0.00000000
     The SCF correction term to forces
     atom    1 type  1   force =    -0.00000000   -0.00000000   -0.00000000
     atom    2 type  1   force =    -0.00000000    0.00000000   -0.00000000
     atom    3 type  1   force =    -0.00000000   -0.00000000   -0.00000000
     atom    4 type  1   force =    -0.00000000    0.00000000   -0.00000000
     atom    5 type  1   force =    -0.00004978   -0.00003963   -0.00139559
     atom    6 type  1   force =    -0.00003937    0.00003597   -0.00125037
     atom    7 type  1   force =    -0.00003345    0.00013860   -0.00043875
     atom    8 type  1   force =    -0.00002942   -0.00012827   -0.00030591
     atom    9 type  1   force =    -0.00000000    0.00000000   -0.00000000
     atom   10 type  1   force =    -0.00000000   -0.00000000   -0.00000000
     atom   11 type  1   force =    -0.00000000   -0.00000000   -0.00000000
     atom   12 type  1   force =    -0.00000000    0.00000000   -0.00000000
     atom   13 type  1   force =    -0.00003727   -0.00033406   -0.00127574
     atom   14 type  1   force =    -0.00004197    0.00034175   -0.00136908
     atom   15 type  1   force =    -0.00003350   -0.00012188   -0.00042333
     atom   16 type  1   force =    -0.00003283    0.00011155   -0.00031776
     atom   17 type  1   force =     0.00000000   -0.00000000   -0.00000000
     atom   18 type  1   force =     0.00000000    0.00000000   -0.00000000
     atom   19 type  1   force =     0.00000000   -0.00000000   -0.00000000
     atom   20 type  1   force =     0.00000000    0.00000000   -0.00000000
     atom   21 type  1   force =     0.00005271   -0.00003729   -0.00147675
     atom   22 type  1   force =     0.00005519    0.00003886   -0.00135233
     atom   23 type  1   force =     0.00003430    0.00013137   -0.00061561
     atom   24 type  1   force =     0.00003205   -0.00014050   -0.00046167
     atom   25 type  1   force =     0.00000000    0.00000000   -0.00000000
     atom   26 type  1   force =     0.00000000   -0.00000000   -0.00000000
     atom   27 type  1   force =     0.00000000   -0.00000000   -0.00000000
     atom   28 type  1   force =     0.00000000    0.00000000   -0.00000000
     atom   29 type  1   force =     0.00005268   -0.00031146   -0.00136672
     atom   30 type  1   force =     0.00005290    0.00030923   -0.00145173
     atom   31 type  1   force =     0.00003318   -0.00011258   -0.00060456
     atom   32 type  1   force =     0.00003314    0.00012342   -0.00048019
     atom   33 type  1   force =     0.00000000   -0.00000000   -0.00000000
     atom   34 type  1   force =     0.00000000    0.00000000   -0.00000000
     atom   35 type  1   force =     0.00000000   -0.00000000   -0.00000000
     atom   36 type  1   force =     0.00000000    0.00000000   -0.00000000
     atom   37 type  1   force =     0.00028161    0.00019473   -0.00117780
     atom   38 type  1   force =     0.00028507   -0.00018470   -0.00101785
     atom   39 type  1   force =     0.00016586    0.00017782    0.00007016
     atom   40 type  1   force =     0.00016388   -0.00017379    0.00009046
     atom   41 type  1   force =     0.00000000   -0.00000000   -0.00000000
     atom   42 type  1   force =     0.00000000    0.00000000   -0.00000000
     atom   43 type  1   force =     0.00000000   -0.00000000   -0.00000000
     atom   44 type  1   force =     0.00000000    0.00000000   -0.00000000
     atom   45 type  1   force =     0.00028164   -0.00022985   -0.00111624
     atom   46 type  1   force =     0.00028652    0.00022150   -0.00107728
     atom   47 type  1   force =     0.00015380    0.00001292   -0.00002821
     atom   48 type  1   force =     0.00016796   -0.00001638    0.00017649
     atom   49 type  1   force =    -0.00000000   -0.00000000   -0.00000000
     atom   50 type  1   force =    -0.00000000    0.00000000   -0.00000000
     atom   51 type  1   force =    -0.00000000   -0.00000000   -0.00000000
     atom   52 type  1   force =    -0.00000000    0.00000000   -0.00000000
     atom   53 type  1   force =    -0.00029694    0.00019533   -0.00119296
     atom   54 type  1   force =    -0.00029272   -0.00018308   -0.00102884
     atom   55 type  1   force =    -0.00017307    0.00017465    0.00005083
     atom   56 type  1   force =    -0.00017348   -0.00017133    0.00006924
     atom   57 type  1   force =    -0.00000000   -0.00000000   -0.00000000
     atom   58 type  1   force =    -0.00000000    0.00000000   -0.00000000
     atom   59 type  1   force =    -0.00000000   -0.00000000   -0.00000000
     atom   60 type  1   force =    -0.00000000    0.00000000   -0.00000000
     atom   61 type  1   force =    -0.00029499   -0.00023235   -0.00113147
     atom   62 type  1   force =    -0.00029481    0.00022282   -0.00109032
     atom   63 type  1   force =    -0.00016513    0.00001217   -0.00003466
     atom   64 type  1   force =    -0.00017146   -0.00001501    0.00014930

     Total force =     0.001697     Total SCF correction =     0.005344
     SCF correction compared to forces is large: reduce conv_thr to get better values

     Computing stress (Cartesian axis) and pressure

          total   stress  (Ry/bohr**3)                   (kbar)     P=       -6.82
  -0.00016970  -0.00000000  -0.00000000          -24.96       -0.00       -0.00
  -0.00000000  -0.00002819   0.00000001           -0.00       -4.15        0.00
  -0.00000000   0.00000001   0.00005874           -0.00        0.00        8.64

     kinetic stress (kbar)  15921.20      0.00     -0.00
                                0.00  15892.58     -0.00
                               -0.00     -0.00  15954.52

     local   stress (kbar)**********     -0.00     -0.04
                               -0.00**********     -0.13
                               -0.04     -0.131322954.65

     nonloc. stress (kbar)  -1716.86     -0.00      0.00
                               -0.00  -1677.38      0.00
                                0.00      0.00  -1728.50

     hartree stress (kbar) 688835.04      0.00      0.02
                                0.00 696102.14      0.05
                                0.02      0.05-617358.82

     exc-cor stress (kbar)  -8018.12      0.00      0.00
                                0.00  -8013.45      0.00
                                0.00      0.00  -8021.63

     corecor stress (kbar)      0.00      0.00      0.00
                                0.00      0.00      0.00
                                0.00      0.00      0.00

     ewald   stress (kbar) 610469.72      0.00      0.02
                                0.00 620124.16      0.08
                                0.02      0.08-711791.59

     hubbard stress (kbar)      0.00      0.00      0.00
                                0.00      0.00      0.00
                                0.00      0.00      0.00

     DFT-D   stress (kbar)      0.00      0.00      0.00
                                0.00      0.00      0.00
                                0.00      0.00      0.00

     XDM     stress (kbar)      0.00      0.00      0.00
                                0.00      0.00      0.00
                                0.00      0.00      0.00

     dft-nl  stress (kbar)      0.00      0.00      0.00
                                0.00      0.00      0.00
                                0.00      0.00      0.00

     TS-vdW  stress (kbar)      0.00      0.00      0.00
                                0.00      0.00      0.00
                                0.00      0.00      0.00

     MDB     stress (kbar)      0.00      0.00      0.00
                                0.00      0.00      0.00
                                0.00      0.00      0.00

     3D-RISM stress (kbar)      0.00      0.00      0.00
                                0.00      0.00      0.00
                                0.00      0.00      0.00

     BFGS Geometry Optimization
     Energy error            =      0.0E+00 Ry
     Gradient error          =      4.9E-04 Ry/Bohr

     bfgs converged in   1 scf cycles and   0 bfgs steps
     (criteria: energy <  1.0E-05 Ry, force <  5.0E-04 Ry/Bohr)

     End of BFGS Geometry Optimization

     Final energy             =  -29538.7594034489 Ry
Begin final coordinates

ATOMIC_POSITIONS (angstrom)
Zn               1.2182902100        1.3071799380        0.7547006810    0   0   0
Zn               1.2182902100        6.5358996490        0.7547006810    0   0   0
Zn               1.2182902100        0.0000000010        3.0188027470    0   0   0
Zn               1.2182902100        5.2287197120        3.0188027470    0   0   0
Zn               1.2185726075       -1.3073880994        5.6729282852
Zn               1.2186851431        3.9215451479        5.6720151579
Zn               1.2186874652       -2.6146512868        8.3124525080
Zn               1.2187441482        2.6147502354        8.3119490829
Zn               1.2182902100        3.9215397940        0.7547006810    0   0   0
Zn               1.2182902100        9.1502595050        0.7547006810    0   0   0
Zn               1.2182902100        2.6143598570        3.0188027470    0   0   0
Zn               1.2182902100        7.8430795680        3.0188027470    0   0   0
Zn               1.2186883199        1.3072854268        5.6723424169
Zn               1.2185625130        6.5357747424        5.6727099542
Zn               1.2187214220       -0.0003586288        8.3124656907
Zn               1.2187057638        5.2291606609        8.3118595007
Zn               6.0914510490        1.3071799380        0.7547006810    0   0   0
Zn               6.0914510490        6.5358996490        0.7547006810    0   0   0
Zn               6.0914510490        0.0000000010        3.0188027470    0   0   0
Zn               6.0914510490        5.2287197120        3.0188027470    0   0   0
Zn               6.0911338514       -1.3072242637        5.6748546444
Zn               6.0910857638        3.9213990650        5.6741431289
Zn               6.0911071145       -2.6147187100        8.3122617478
Zn               6.0909630492        2.6148257972        8.3118541494
Zn               6.0914510490        3.9215397940        0.7547006810    0   0   0
Zn               6.0914510490        9.1502595050        0.7547006810    0   0   0
Zn               6.0914510490        2.6143598570        3.0188027470    0   0   0
Zn               6.0914510490        7.8430795680        3.0188027470    0   0   0
Zn               6.0911030401        1.3076064174        5.6744400348
Zn               6.0911314819        6.5354481156        5.6746346244
Zn               6.0910519940       -0.0001550310        8.3123616547
Zn               6.0910350808        5.2289552434        8.3117181402
Zn               3.6548706290       -0.0000000190        1.5094013850    0   0   0
Zn               3.6548706290        5.2287196920        1.5094013850    0   0   0
Zn               3.6548706290       -1.3071799560        3.7735034500    0   0   0
Zn               3.6548706290        3.9215397550        3.7735034500    0   0   0
Zn               3.6546710580       -2.6147701593        6.0778389286
Zn               3.6547432516        2.6146750712        6.0771464013
Zn               3.6559778408       -3.9216886876        8.4670559092
Zn               3.6560296889        1.3071976063        8.4673307023
Zn               3.6548706290        2.6143598370        1.5094013850    0   0   0
Zn               3.6548706290        7.8430795480        1.5094013850    0   0   0
Zn               3.6548706290        1.3071799000        3.7735034500    0   0   0
Zn               3.6548706290        6.5358996110        3.7735034500    0   0   0
Zn               3.6547437702        0.0001669099        6.0773502731
Zn               3.6547864959        5.2284186199        6.0775758154
Zn               3.6559474203       -1.3076933695        8.4673694336
Zn               3.6560502897        3.9218980393        8.4670053876
Zn               8.5280314680       -0.0000000190        1.5094013850    0   0   0
Zn               8.5280314680        5.2287196920        1.5094013850    0   0   0
Zn               8.5280314680       -1.3071799560        3.7735034500    0   0   0
Zn               8.5280314680        3.9215397550        3.7735034500    0   0   0
Zn               8.5281647867       -2.6147587956        6.0779299812
Zn               8.5281732184        2.6146472247        6.0772010317
Zn               8.5269885230       -3.9215735360        8.4681201244
Zn               8.5268924990        1.3070557120        8.4683976833
Zn               8.5280314680        2.6143598370        1.5094013850    0   0   0
Zn               8.5280314680        7.8430795480        1.5094013850    0   0   0
Zn               8.5280314680        1.3071799000        3.7735034500    0   0   0
Zn               8.5280314680        6.5358996110        3.7735034500    0   0   0
Zn               8.5282171944       -0.0000137934        6.0774321744
Zn               8.5281738077        5.2286143460        6.0776528160
Zn               8.5270310305       -1.3077639996        8.4684178960
Zn               8.5268620331        3.9220020700        8.4680752259
End final coordinates

     Writing all to output data dir ./tmp/Zn100_4layer_relax.save/ :
     XML data file, charge density, pseudopotentials, collected wavefunctions

     General routines

     Parallel routines

   This run was terminated on:  23:44:26  27Mar2025

   JOB DONE.