     Program PWSCF v.7.3.1 starts on 30Jan1998 at 10:34:16

     Waiting for input...
     Reading input from standard input
Warning: card &CELL ignored
Warning: card   CELL_DOFREE = 'ALL' ignored
Warning: card / ignored

     Current dimensions of program PWSCF are:
     Max number of different atomic species (ntypx) = 10
     Max number of k-points (npk) =  40000
     Max angular momentum in pseudopotentials (lmaxx) =  4
     file C.pbe-n-kjpaw_psl.1.0.0.UPF: wavefunction(s)  2S 2P renormalized

     R & G space division:  proc/nbgrp/npool/nimage =      34
     Subspace diagonalization in iterative solution of the eigenvalue problem:
     one sub-group per band group will be used

     Using Slab Decomposition

     bravais-lattice index     =            0
     lattice parameter (alat)  =      19.7617  a.u.
     unit-cell volume          =   15176.5939 (a.u.)^3
     number of atoms/cell      =           79
     number of atomic types    =            4
     number of electrons       =      1324.00
     number of Kohn-Sham states=          794
     kinetic-energy cutoff     =      50.0000  Ry
     charge density cutoff     =     200.0000  Ry
     scf convergence threshold =      7.3E-07
     mixing beta               =       0.7000
     number of iterations used =            8  plain     mixing
     Exchange-correlation= PBE
                           (   1   4   3   4   0   0   0)

     celldm(1)=  19.761696  celldm(2)=   0.000000  celldm(3)=   0.000000
     celldm(4)=   0.000000  celldm(5)=   0.000000  celldm(6)=   0.000000

     crystal axes: (cart. coord. in units of alat)
               a(1) = (   1.000000   0.000000   0.000000 )
               a(2) = (  -0.500000   0.866025   0.000000 )
               a(3) = (   0.000000   0.000000   2.270759 )

     reciprocal axes: (cart. coord. in units 2 pi/alat)
               b(1) = (  1.000000  0.577350 -0.000000 )
               b(2) = (  0.000000  1.154701  0.000000 )
               b(3) = (  0.000000 -0.000000  0.440381 )

     PseudoPot. # 1 for Zn read from file:
     /home/ys/qepseudo/SSSP_1.3.0_PBE_efficiency/Zn_pbe_v1.uspp.F.UPF
     MD5 check sum: df62231357ef9e81f77b2b3087fa5675
     Pseudo is Ultrasoft, Zval = 20.0
     Generated by new atomic code, or converted to UPF format
     Using radial grid of  943 points,  6 beta functions with:
                l(1) =   0
                l(2) =   0
                l(3) =   1
                l(4) =   1
                l(5) =   2
                l(6) =   2
     Q(r) pseudized with  8 coefficients,  rinner =    1.100   1.100   1.100
                                                       1.100   1.100

     PseudoPot. # 2 for C  read from file:
     /home/ys/qepseudo/SSSP_1.3.0_PBE_efficiency/C.pbe-n-kjpaw_psl.1.0.0.UPF
     MD5 check sum: 5d2aebdfa2cae82b50a7e79e9516da0f
     Pseudo is Projector augmented-wave + core cor, Zval =  4.0
     Generated using "atomic" code by A. Dal Corso  v.5.1
     Shape of augmentation charge: PSQ
     Using radial grid of 1073 points,  4 beta functions with:
                l(1) =   0
                l(2) =   0
                l(3) =   1
                l(4) =   1
     Q(r) pseudized with 0 coefficients

     PseudoPot. # 3 for N  read from file:
     /home/ys/qepseudo/SSSP_1.3.0_PBE_efficiency/N.pbe-n-radius_5.UPF
     MD5 check sum: 16739722b17309cd8fe442a2ace49922
     Pseudo is Ultrasoft + core correction, Zval =  5.0
     Generated using "atomic" code by A. Dal Corso  v.5.1
     Using radial grid of 1085 points,  4 beta functions with:
                l(1) =   0
                l(2) =   0
                l(3) =   1
                l(4) =   1
     Q(r) pseudized with 0 coefficients

     PseudoPot. # 4 for H  read from file:
     /home/ys/qepseudo/SSSP_1.3.0_PBE_efficiency/H.pbe-rrkjus_psl.1.0.0.UPF
     MD5 check sum: f52b6d4d1c606e5624b1dc7b2218f220
     Pseudo is Ultrasoft, Zval =  1.0
     Generated using "atomic" code by A. Dal Corso  v.5.1
     Using radial grid of  929 points,  2 beta functions with:
                l(1) =   0
                l(2) =   0
     Q(r) pseudized with 0 coefficients

     atomic species   valence    mass     pseudopotential
     Zn               20.00    65.38000     Zn( 1.00)
     C                 4.00    12.01070     C ( 1.00)
     N                 5.00    14.00670     N ( 1.00)
     H                 1.00     1.00800     H ( 1.00)

     No symmetry found

                                    s                        frac. trans.

      isym =  1     identity

 cryst.   s( 1) = (     1          0          0      )
                  (     0          1          0      )
                  (     0          0          1      )

 cart.    s( 1) = (  1.0000000  0.0000000  0.0000000 )
                  (  0.0000000  1.0000000  0.0000000 )
                  (  0.0000000  0.0000000  1.0000000 )

   Cartesian axes

     site n.     atom                  positions (alat units)
         1        Zn     tau(   1) = (  -0.0000000   0.1443376   0.1164999  )
         2        Zn     tau(   2) = (   0.5000000   0.1443376   0.1164999  )
         3        Zn     tau(   3) = (   0.0001063   0.1443772   0.5902127  )
         4        Zn     tau(   4) = (   0.4998958   0.1443643   0.5917156  )
         5        Zn     tau(   5) = (  -0.1250000   0.3608439   0.1164999  )
         6        Zn     tau(   6) = (   0.3750000   0.3608439   0.1164999  )
         7        Zn     tau(   7) = (  -0.1249761   0.3609302   0.5908726  )
         8        Zn     tau(   8) = (   0.3749642   0.3608477   0.5913644  )
         9        Zn     tau(   9) = (  -0.2500000   0.5773503   0.1164999  )
        10        Zn     tau(  10) = (   0.2500000   0.5773503   0.1164999  )
        11        Zn     tau(  11) = (  -0.2499911   0.5773738   0.5915504  )
        12        Zn     tau(  12) = (   0.2499824   0.5772583   0.5907382  )
        13        Zn     tau(  13) = (  -0.3750000   0.7938566   0.1164999  )
        14        Zn     tau(  14) = (   0.1250000   0.7938566   0.1164999  )
        15        Zn     tau(  15) = (  -0.3749161   0.7938269   0.5909604  )
        16        Zn     tau(  16) = (   0.1249053   0.7937898   0.5911170  )
        17        Zn     tau(  17) = (   0.2500000   0.1443376   0.1164999  )
        18        Zn     tau(  18) = (   0.7500000   0.1443376   0.1164999  )
        19        Zn     tau(  19) = (   0.2499566   0.1443139   0.5910485  )
        20        Zn     tau(  20) = (   0.7500401   0.1444360   0.5909256  )
        21        Zn     tau(  21) = (   0.1250000   0.3608439   0.1164999  )
        22        Zn     tau(  22) = (   0.6250000   0.3608439   0.1164999  )
        23        Zn     tau(  23) = (   0.1249684   0.3608327   0.5904686  )
        24        Zn     tau(  24) = (   0.6250220   0.3609386   0.5917101  )
        25        Zn     tau(  25) = (  -0.0000000   0.5773503   0.1164999  )
        26        Zn     tau(  26) = (   0.5000000   0.5773503   0.1164999  )
        27        Zn     tau(  27) = (  -0.0000983   0.5773031   0.5910657  )
        28        Zn     tau(  28) = (   0.5000885   0.5773473   0.5912976  )
        29        Zn     tau(  29) = (  -0.1250000   0.7938566   0.1164999  )
        30        Zn     tau(  30) = (   0.3750000   0.7938566   0.1164999  )
        31        Zn     tau(  31) = (  -0.1251014   0.7937984   0.5915674  )
        32        Zn     tau(  32) = (   0.3751324   0.7938157   0.5904624  )
        33        Zn     tau(  33) = (   0.1250000   0.0721688   0.3494996  )
        34        Zn     tau(  34) = (   0.6250000   0.0721688   0.3494996  )
        35        Zn     tau(  35) = (   0.1248091   0.0718530   0.8330921  )
        36        Zn     tau(  36) = (   0.6250782   0.0719029   0.8329720  )
        37        Zn     tau(  37) = (   0.0000000   0.2886751   0.3494996  )
        38        Zn     tau(  38) = (   0.5000000   0.2886751   0.3494996  )
        39        Zn     tau(  39) = (  -0.0001233   0.2885465   0.8326802  )
        40        Zn     tau(  40) = (   0.5001664   0.2886112   0.8304998  )
        41        Zn     tau(  41) = (  -0.1250000   0.5051815   0.3494996  )
        42        Zn     tau(  42) = (   0.3750000   0.5051815   0.3494996  )
        43        Zn     tau(  43) = (  -0.1251737   0.5050546   0.8330493  )
        44        Zn     tau(  44) = (   0.3750127   0.5053062   0.8324313  )
        45        Zn     tau(  45) = (  -0.2500000   0.7216878   0.3494996  )
        46        Zn     tau(  46) = (   0.2500000   0.7216878   0.3494996  )
        47        Zn     tau(  47) = (  -0.2500934   0.7215858   0.8334125  )
        48        Zn     tau(  48) = (   0.2500569   0.7216264   0.8329478  )
        49        Zn     tau(  49) = (   0.3750000   0.0721688   0.3494996  )
        50        Zn     tau(  50) = (   0.8750000   0.0721688   0.3494996  )
        51        Zn     tau(  51) = (   0.3749592   0.0719990   0.8333365  )
        52        Zn     tau(  52) = (   0.8750264   0.0720212   0.8326466  )
        53        Zn     tau(  53) = (   0.2500000   0.2886751   0.3494996  )
        54        Zn     tau(  54) = (   0.7500000   0.2886751   0.3494996  )
        55        Zn     tau(  55) = (   0.2496261   0.2881738   0.8269236  )
        56        Zn     tau(  56) = (   0.7501031   0.2884453   0.8327565  )
        57        Zn     tau(  57) = (   0.1250000   0.5051815   0.3494996  )
        58        Zn     tau(  58) = (   0.6250000   0.5051815   0.3494996  )
        59        Zn     tau(  59) = (   0.1247966   0.5052991   0.8292882  )
        60        Zn     tau(  60) = (   0.6249849   0.5051435   0.8337009  )
[...]
        65        C      tau(  65) = (   0.5001245   0.6512489   1.5818856  )
        66        C      tau(  66) = (   0.4503748   0.5880873   1.4717825  )
        67        C      tau(  67) = (   0.5225991   0.4943651   1.4071785  )
        68        C      tau(  68) = (   0.3264123   0.6162507   1.4267241  )
        69        C      tau(  69) = (   0.2764625   0.5530442   1.3215455  )
        70        C      tau(  70) = (   0.4730439   0.4317765   1.3012616  )
        71        C      tau(  71) = (   0.3480239   0.4581219   1.2574389  )
        72        N      tau(  72) = (   0.5407786   0.7032875   1.6727142  )
        73        N      tau(  73) = (   0.2953490   0.3888539   1.1587312  )
        74        H      tau(  74) = (   0.2166512   0.4247776   1.1137495  )
        75        H      tau(  75) = (   0.3555477   0.3399550   1.0995347  )
        76        H      tau(  76) = (   0.6188986   0.4715322   1.4409974  )
        77        H      tau(  77) = (   0.2691854   0.6885226   1.4761519  )
        78        H      tau(  78) = (   0.1794203   0.5753496   1.2890370  )
        79        H      tau(  79) = (   0.5304886   0.3589262   1.2526284  )

   Crystallographic axes

     site n.     atom                  positions (cryst. coord.)
         1        Zn     tau(   1) = (  0.0833333  0.1666667  0.0513044  )
         2        Zn     tau(   2) = (  0.5833333  0.1666667  0.0513044  )
         3        Zn     tau(   3) = (  0.0834625  0.1667124  0.2599187  )
         4        Zn     tau(   4) = (  0.5832446  0.1666976  0.2605806  )
[...]
     atom   60 type  1   force =     0.00000000    0.00000000    0.00000000
[...]
     atom   65 type  2   force =     0.00603526    0.00798237    0.01415947
     atom   66 type  2   force =    -0.00214492   -0.00285285   -0.00468063
     atom   67 type  2   force =    -0.00113529   -0.00056557   -0.00150679
     atom   68 type  2   force =    -0.00002857   -0.00140572   -0.00201797
     atom   69 type  2   force =     0.00166756    0.00054307    0.00117953
     atom   70 type  2   force =     0.00000168    0.00142295    0.00134068
     atom   71 type  2   force =     0.00259641    0.00352173    0.00410391
     atom   72 type  3   force =     0.00339864    0.00436224    0.00763220
     atom   73 type  3   force =    -0.00268133   -0.00493470    0.00243473
     atom   74 type  4   force =     0.00000000    0.00000000    0.00000000
     atom   75 type  4   force =     0.00000000    0.00000000    0.00000000
     atom   76 type  4   force =     0.00000000    0.00000000    0.00000000
     atom   77 type  4   force =     0.00000000    0.00000000    0.00000000
     atom   78 type  4   force =     0.00000000    0.00000000    0.00000000
     atom   79 type  4   force =     0.00000000    0.00000000    0.00000000
     The Hubbard contrib.    to forces
     atom    1 type  1   force =     0.00000000    0.00000000    0.00000000
     atom    2 type  1   force =     0.00000000    0.00000000    0.00000000
     atom    3 type  1   force =     0.00000000    0.00000000    0.00000000
     atom    4 type  1   force =     0.00000000    0.00000000    0.00000000
     atom    5 type  1   force =     0.00000000    0.00000000    0.00000000
     atom    6 type  1   force =     0.00000000    0.00000000    0.00000000
     atom    7 type  1   force =     0.00000000    0.00000000    0.00000000
     atom    8 type  1   force =     0.00000000    0.00000000    0.00000000
     atom    9 type  1   force =     0.00000000    0.00000000    0.00000000
     atom   10 type  1   force =     0.00000000    0.00000000    0.00000000
     atom   11 type  1   force =     0.00000000    0.00000000    0.00000000
     atom   12 type  1   force =     0.00000000    0.00000000    0.00000000
     atom   13 type  1   force =     0.00000000    0.00000000    0.00000000
     atom   14 type  1   force =     0.00000000    0.00000000    0.00000000
     atom   15 type  1   force =     0.00000000    0.00000000    0.00000000
     atom   16 type  1   force =     0.00000000    0.00000000    0.00000000
     atom   17 type  1   force =     0.00000000    0.00000000    0.00000000
     atom   18 type  1   force =     0.00000000    0.00000000    0.00000000
     atom   19 type  1   force =     0.00000000    0.00000000    0.00000000
     atom   20 type  1   force =     0.00000000    0.00000000    0.00000000
     atom   21 type  1   force =     0.00000000    0.00000000    0.00000000
     atom   22 type  1   force =     0.00000000    0.00000000    0.00000000
     atom   23 type  1   force =     0.00000000    0.00000000    0.00000000
     atom   24 type  1   force =     0.00000000    0.00000000    0.00000000
     atom   25 type  1   force =     0.00000000    0.00000000    0.00000000
     atom   26 type  1   force =     0.00000000    0.00000000    0.00000000
     atom   27 type  1   force =     0.00000000    0.00000000    0.00000000
     atom   28 type  1   force =     0.00000000    0.00000000    0.00000000
     atom   29 type  1   force =     0.00000000    0.00000000    0.00000000
     atom   30 type  1   force =     0.00000000    0.00000000    0.00000000
     atom   31 type  1   force =     0.00000000    0.00000000    0.00000000
     atom   32 type  1   force =     0.00000000    0.00000000    0.00000000
     atom   33 type  1   force =     0.00000000    0.00000000    0.00000000
     atom   34 type  1   force =     0.00000000    0.00000000    0.00000000
     atom   35 type  1   force =     0.00000000    0.00000000    0.00000000
     atom   36 type  1   force =     0.00000000    0.00000000    0.00000000
     atom   37 type  1   force =     0.00000000    0.00000000    0.00000000
     atom   38 type  1   force =     0.00000000    0.00000000    0.00000000
     atom   39 type  1   force =     0.00000000    0.00000000    0.00000000
     atom   40 type  1   force =     0.00000000    0.00000000    0.00000000
     atom   41 type  1   force =     0.00000000    0.00000000    0.00000000
     atom   42 type  1   force =     0.00000000    0.00000000    0.00000000
     atom   43 type  1   force =     0.00000000    0.00000000    0.00000000
     atom   44 type  1   force =     0.00000000    0.00000000    0.00000000
     atom   45 type  1   force =     0.00000000    0.00000000    0.00000000
     atom   46 type  1   force =     0.00000000    0.00000000    0.00000000
     atom   47 type  1   force =     0.00000000    0.00000000    0.00000000
     atom   48 type  1   force =     0.00000000    0.00000000    0.00000000
     atom   49 type  1   force =     0.00000000    0.00000000    0.00000000
     atom   50 type  1   force =     0.00000000    0.00000000    0.00000000
     atom   51 type  1   force =     0.00000000    0.00000000    0.00000000
     atom   52 type  1   force =     0.00000000    0.00000000    0.00000000
     atom   53 type  1   force =     0.00000000    0.00000000    0.00000000
     atom   54 type  1   force =     0.00000000    0.00000000    0.00000000
     atom   55 type  1   force =     0.00000000    0.00000000    0.00000000
     atom   56 type  1   force =     0.00000000    0.00000000    0.00000000
     atom   57 type  1   force =     0.00000000    0.00000000    0.00000000
     atom   58 type  1   force =     0.00000000    0.00000000    0.00000000
     atom   59 type  1   force =     0.00000000    0.00000000    0.00000000
     atom   60 type  1   force =     0.00000000    0.00000000    0.00000000
[...]
     atom   65 type  2   force =     0.00000000    0.00000000    0.00000000
     atom   66 type  2   force =     0.00000000    0.00000000    0.00000000
     atom   67 type  2   force =     0.00000000    0.00000000    0.00000000
     atom   68 type  2   force =     0.00000000    0.00000000    0.00000000
     atom   69 type  2   force =     0.00000000    0.00000000    0.00000000
     atom   70 type  2   force =     0.00000000    0.00000000    0.00000000
     atom   71 type  2   force =     0.00000000    0.00000000    0.00000000
     atom   72 type  3   force =     0.00000000    0.00000000    0.00000000
     atom   73 type  3   force =     0.00000000    0.00000000    0.00000000
     atom   74 type  4   force =     0.00000000    0.00000000    0.00000000
     atom   75 type  4   force =     0.00000000    0.00000000    0.00000000
     atom   76 type  4   force =     0.00000000    0.00000000    0.00000000
     atom   77 type  4   force =     0.00000000    0.00000000    0.00000000
     atom   78 type  4   force =     0.00000000    0.00000000    0.00000000
     atom   79 type  4   force =     0.00000000    0.00000000    0.00000000
     The SCF correction term to forces
     atom    1 type  1   force =    -0.00023250   -0.00016216    0.00062790
     atom    2 type  1   force =     0.00023315   -0.00049507    0.00051062
     atom    3 type  1   force =    -0.00015585    0.00018680   -0.00053783
     atom    4 type  1   force =     0.00016826   -0.00063791   -0.00039790
     atom    5 type  1   force =    -0.00014391   -0.00008619    0.00062935
     atom    6 type  1   force =     0.00014841   -0.00030373    0.00009164
     atom    7 type  1   force =     0.00003449   -0.00012535   -0.00050188
     atom    8 type  1   force =    -0.00002445   -0.00064650   -0.00005674
     atom    9 type  1   force =     0.00028793    0.00017118    0.00060559
     atom   10 type  1   force =    -0.00027568    0.00045383    0.00017621
     atom   11 type  1   force =     0.00066823    0.00011640   -0.00063316
     atom   12 type  1   force =    -0.00065537    0.00030169   -0.00020390
     atom   13 type  1   force =     0.00018191    0.00013225    0.00059558
     atom   14 type  1   force =    -0.00019845    0.00028728    0.00058798
     atom   15 type  1   force =     0.00049113    0.00041938   -0.00065950
     atom   16 type  1   force =    -0.00049233    0.00039116   -0.00054865
     atom   17 type  1   force =    -0.00015052   -0.00059409    0.00045341
     atom   18 type  1   force =     0.00015424   -0.00004772    0.00068143
     atom   19 type  1   force =    -0.00008992   -0.00055068   -0.00033974
     atom   20 type  1   force =     0.00007786    0.00009546   -0.00059001
     atom   21 type  1   force =    -0.00057911   -0.00023158    0.00030509
     atom   22 type  1   force =     0.00057554   -0.00016104    0.00043437
     atom   23 type  1   force =    -0.00073887   -0.00033989   -0.00017107
     atom   24 type  1   force =     0.00073837   -0.00045491   -0.00039272
     atom   25 type  1   force =    -0.00047340    0.00022858    0.00053800
     atom   26 type  1   force =     0.00046304    0.00039550    0.00025130
     atom   27 type  1   force =    -0.00054006    0.00017016   -0.00047013
     atom   28 type  1   force =     0.00052286    0.00024626   -0.00036491
     atom   29 type  1   force =    -0.00004274   -0.00011937    0.00066279
     atom   30 type  1   force =     0.00006380    0.00053337    0.00050035
     atom   31 type  1   force =     0.00011311   -0.00000294   -0.00060957
     atom   32 type  1   force =    -0.00011244    0.00082525   -0.00057533
     atom   33 type  1   force =    -0.00009989   -0.00021925   -0.00022222
     atom   34 type  1   force =     0.00008391   -0.00010898   -0.00018121
     atom   35 type  1   force =     0.00012322    0.00024703   -0.00042606
     atom   36 type  1   force =    -0.00013666    0.00003783   -0.00045797
     atom   37 type  1   force =    -0.00054919   -0.00025008   -0.00015034
     atom   38 type  1   force =     0.00058922   -0.00071658   -0.00025270
     atom   39 type  1   force =    -0.00007531    0.00001786   -0.00047069
     atom   40 type  1   force =     0.00007220   -0.00036517   -0.00010996
     atom   41 type  1   force =    -0.00010741    0.00009983   -0.00016667
     atom   42 type  1   force =     0.00011510    0.00021191   -0.00041259
     atom   43 type  1   force =     0.00016300   -0.00010064   -0.00046233
     atom   44 type  1   force =    -0.00015053   -0.00019801    0.00023393
     atom   45 type  1   force =     0.00036069    0.00014093   -0.00023346
     atom   46 type  1   force =    -0.00040246    0.00083006   -0.00036854
     atom   47 type  1   force =     0.00033514    0.00015008   -0.00042678
     atom   48 type  1   force =    -0.00032806    0.00018722   -0.00010447
     atom   49 type  1   force =     0.00007200   -0.00064422   -0.00013982
     atom   50 type  1   force =    -0.00005908    0.00032741   -0.00025834
     atom   51 type  1   force =     0.00005772   -0.00007650   -0.00047731
     atom   52 type  1   force =    -0.00004306    0.00034935   -0.00040152
     atom   53 type  1   force =    -0.00041226   -0.00073900   -0.00018383
     atom   54 type  1   force =     0.00038386   -0.00021853   -0.00019936
     atom   55 type  1   force =    -0.00018234   -0.00025798   -0.00013707
     atom   56 type  1   force =     0.00018602   -0.00008937   -0.00044296
     atom   57 type  1   force =    -0.00092003    0.00020666   -0.00020214
     atom   58 type  1   force =     0.00089837    0.00011824   -0.00040798
     atom   59 type  1   force =    -0.00035918   -0.00010493   -0.00015070
     atom   60 type  1   force =     0.00031410   -0.00017616   -0.00007786
[...]
     atom   65 type  2   force =     0.00008884    0.00011115    0.00021017
     atom   66 type  2   force =    -0.00006275   -0.00008741   -0.00013712
     atom   67 type  2   force =     0.00001521   -0.00014760   -0.00015833
     atom   68 type  2   force =    -0.00015962   -0.00003745   -0.00013946
     atom   69 type  2   force =     0.00001965   -0.00005605   -0.00005297
     atom   70 type  2   force =    -0.00006458   -0.00000159   -0.00003931
     atom   71 type  2   force =     0.00003951    0.00004958    0.00006862
     atom   72 type  3   force =     0.00010289    0.00013067    0.00025194
     atom   73 type  3   force =     0.00005789    0.00007973    0.00010583
     atom   74 type  4   force =    -0.00001229    0.00001265    0.00000223
     atom   75 type  4   force =     0.00001616   -0.00000501    0.00000022
     atom   76 type  4   force =     0.00000661   -0.00001701   -0.00001282
     atom   77 type  4   force =    -0.00002121    0.00000107   -0.00000913
     atom   78 type  4   force =     0.00001794   -0.00000738    0.00000453
     atom   79 type  4   force =    -0.00001469    0.00001321    0.00000915

     Total force =     0.052102     Total SCF correction =     0.005281
     SCF correction compared to forces is large: reduce conv_thr to get better values

     Computing stress (Cartesian axis) and pressure

     negative rho (up, down):  4.098E-03 0.000E+00
          total   stress  (Ry/bohr**3)                   (kbar)     P=       -1.92
  -0.00001763   0.00000087  -0.00000152           -2.59        0.13       -0.22
   0.00000087  -0.00001597  -0.00000240            0.13       -2.35       -0.35
  -0.00000152  -0.00000240  -0.00000548           -0.22       -0.35       -0.81

     kinetic stress (kbar)  17124.18     15.12    -20.68
                               15.12  17147.24    -34.96
                              -20.68    -34.96  17215.12

     local   stress (kbar)**********    161.18   -830.98
                              161.18**********  -1300.32
                             -830.98  -1300.321460581.40

     nonloc. stress (kbar)  -1606.80     -0.48      2.37
                               -0.48  -1608.08      3.69
                                2.37      3.69  -1669.62

     hartree stress (kbar) 758765.21    -44.23    326.88
                              -44.23 758591.40    507.13
                              326.88    507.13-683211.08

     exc-cor stress (kbar)  -8421.00     -0.65      1.14
                               -0.65  -8422.07      1.90
                                1.14      1.90  -8432.12

     corecor stress (kbar)    -83.53      0.19     -0.35
                                0.19    -83.21     -0.59
                               -0.35     -0.59    -83.54

     ewald   stress (kbar) 678636.37   -131.00    521.39
                             -131.00 678304.14    822.80
                              521.39    822.80-784400.97

     hubbard stress (kbar)      0.00      0.00      0.00
                                0.00      0.00      0.00
                                0.00      0.00      0.00

     DFT-D   stress (kbar)      0.00      0.00      0.00
                                0.00      0.00      0.00
                                0.00      0.00      0.00

     XDM     stress (kbar)      0.00      0.00      0.00
                                0.00      0.00      0.00
                                0.00      0.00      0.00

     dft-nl  stress (kbar)      0.00      0.00      0.00
                                0.00      0.00      0.00
                                0.00      0.00      0.00

     TS-vdW  stress (kbar)      0.00      0.00      0.00
                                0.00      0.00      0.00
                                0.00      0.00      0.00

     MDB     stress (kbar)      0.00      0.00      0.00
                                0.00      0.00      0.00
                                0.00      0.00      0.00

     3D-RISM stress (kbar)      0.00      0.00      0.00
                                0.00      0.00      0.00
                                0.00      0.00      0.00

     Writing all to output data dir ./tmp/Zn002_4x4x2_primitive_14Avacumn_bridgesite_tilted_cross_ABN.save/ :
     XML data file, charge density, pseudopotentials, collected wavefunctions

     General routines

     Parallel routines

     PAW routines

   This run was terminated on:  18:32:19  30Jan1998

   JOB DONE.
Note: The following floating-point exceptions are signalling: IEEE_DENORMAL
Note: The following floating-point exceptions are signalling: IEEE_DENORMAL
Note: The following floating-point exceptions are signalling: IEEE_DENORMAL
Note: The following floating-point exceptions are signalling: IEEE_DENORMAL
Note: The following floating-point exceptions are signalling: IEEE_DENORMAL
Note: The following floating-point exceptions are signalling: IEEE_DENORMAL
Note: The following floating-point exceptions are signalling: IEEE_DENORMAL
Note: The following floating-point exceptions are signalling: IEEE_DENORMAL
Note: The following floating-point exceptions are signalling: IEEE_DENORMAL
Note: The following floating-point exceptions are signalling: IEEE_DENORMAL