     Program PWSCF v.7.3.1 starts on 22Mar2025 at  2:31: 3

     Waiting for input...
     Reading input from standard input
Warning: card &CELL ignored
Warning: card   CELL_DOFREE = 'ALL' ignored
Warning: card / ignored

     Current dimensions of program PWSCF are:
     Max number of different atomic species (ntypx) = 10
     Max number of k-points (npk) =  40000
     Max angular momentum in pseudopotentials (lmaxx) =  4
     file C.pbe-n-kjpaw_psl.1.0.0.UPF: wavefunction(s)  2S 2P renormalized

     R & G space division:  proc/nbgrp/npool/nimage =      32
     Subspace diagonalization in iterative solution of the eigenvalue problem:
     one sub-group per band group will be used

     Using Slab Decomposition

     bravais-lattice index     =            0
     lattice parameter (alat)  =      19.7617  a.u.
     unit-cell volume          =   15176.5939 (a.u.)^3
     number of atoms/cell      =           79
     number of atomic types    =            4
     number of electrons       =      1324.00
     number of Kohn-Sham states=          794
     kinetic-energy cutoff     =      50.0000  Ry
     charge density cutoff     =     200.0000  Ry
     scf convergence threshold =      7.3E-07
     mixing beta               =       0.7000
     number of iterations used =            8  plain     mixing
     Exchange-correlation= PBE
                           (   1   4   3   4   0   0   0)

     celldm(1)=  19.761696  celldm(2)=   0.000000  celldm(3)=   0.000000
     celldm(4)=   0.000000  celldm(5)=   0.000000  celldm(6)=   0.000000

     crystal axes: (cart. coord. in units of alat)
               a(1) = (   1.000000   0.000000   0.000000 )
               a(2) = (  -0.500000   0.866025   0.000000 )
               a(3) = (   0.000000   0.000000   2.270759 )

     reciprocal axes: (cart. coord. in units 2 pi/alat)
               b(1) = (  1.000000  0.577350 -0.000000 )
               b(2) = (  0.000000  1.154701  0.000000 )
               b(3) = (  0.000000 -0.000000  0.440381 )

     PseudoPot. # 1 for Zn read from file:
     /home/ys/qepseudo/SSSP_1.3.0_PBE_efficiency/Zn_pbe_v1.uspp.F.UPF
     MD5 check sum: df62231357ef9e81f77b2b3087fa5675
     Pseudo is Ultrasoft, Zval = 20.0
     Generated by new atomic code, or converted to UPF format
     Using radial grid of  943 points,  6 beta functions with:
                l(1) =   0
                l(2) =   0
                l(3) =   1
                l(4) =   1
                l(5) =   2
                l(6) =   2
     Q(r) pseudized with  8 coefficients,  rinner =    1.100   1.100   1.100
                                                       1.100   1.100

     PseudoPot. # 2 for C  read from file:
     /home/ys/qepseudo/SSSP_1.3.0_PBE_efficiency/C.pbe-n-kjpaw_psl.1.0.0.UPF
     MD5 check sum: 5d2aebdfa2cae82b50a7e79e9516da0f
     Pseudo is Projector augmented-wave + core cor, Zval =  4.0
     Generated using "atomic" code by A. Dal Corso  v.5.1
     Shape of augmentation charge: PSQ
     Using radial grid of 1073 points,  4 beta functions with:
                l(1) =   0
                l(2) =   0
                l(3) =   1
                l(4) =   1
     Q(r) pseudized with 0 coefficients

     PseudoPot. # 3 for N  read from file:
     /home/ys/qepseudo/SSSP_1.3.0_PBE_efficiency/N.pbe-n-radius_5.UPF
     MD5 check sum: 16739722b17309cd8fe442a2ace49922
     Pseudo is Ultrasoft + core correction, Zval =  5.0
     Generated using "atomic" code by A. Dal Corso  v.5.1
     Using radial grid of 1085 points,  4 beta functions with:
                l(1) =   0
                l(2) =   0
                l(3) =   1
                l(4) =   1
     Q(r) pseudized with 0 coefficients

     PseudoPot. # 4 for H  read from file:
     /home/ys/qepseudo/SSSP_1.3.0_PBE_efficiency/H.pbe-rrkjus_psl.1.0.0.UPF
     MD5 check sum: f52b6d4d1c606e5624b1dc7b2218f220
     Pseudo is Ultrasoft, Zval =  1.0
     Generated using "atomic" code by A. Dal Corso  v.5.1
     Using radial grid of  929 points,  2 beta functions with:
                l(1) =   0
                l(2) =   0
     Q(r) pseudized with 0 coefficients

     atomic species   valence    mass     pseudopotential
     Zn               20.00    65.38000     Zn( 1.00)
     C                 4.00    12.01070     C ( 1.00)
     N                 5.00    14.00670     N ( 1.00)
     H                 1.00     1.00800     H ( 1.00)

     No symmetry found

                                    s                        frac. trans.

      isym =  1     identity

 cryst.   s( 1) = (     1          0          0      )
                  (     0          1          0      )
                  (     0          0          1      )

 cart.    s( 1) = (  1.0000000  0.0000000  0.0000000 )
                  (  0.0000000  1.0000000  0.0000000 )
                  (  0.0000000  0.0000000  1.0000000 )

   Cartesian axes

     site n.     atom                  positions (alat units)
         1        Zn     tau(   1) = (  -0.0000000   0.1443376   0.1164999  )
         2        Zn     tau(   2) = (   0.5000000   0.1443376   0.1164999  )
         3        Zn     tau(   3) = (   0.0001063   0.1443772   0.5902127  )
         4        Zn     tau(   4) = (   0.4998958   0.1443643   0.5917156  )
         5        Zn     tau(   5) = (  -0.1250000   0.3608439   0.1164999  )
         6        Zn     tau(   6) = (   0.3750000   0.3608439   0.1164999  )
         7        Zn     tau(   7) = (  -0.1249761   0.3609302   0.5908726  )
         8        Zn     tau(   8) = (   0.3749642   0.3608477   0.5913644  )
         9        Zn     tau(   9) = (  -0.2500000   0.5773503   0.1164999  )
        10        Zn     tau(  10) = (   0.2500000   0.5773503   0.1164999  )
        11        Zn     tau(  11) = (  -0.2499911   0.5773738   0.5915504  )
        12        Zn     tau(  12) = (   0.2499824   0.5772583   0.5907382  )
        13        Zn     tau(  13) = (  -0.3750000   0.7938566   0.1164999  )
        14        Zn     tau(  14) = (   0.1250000   0.7938566   0.1164999  )
        15        Zn     tau(  15) = (  -0.3749161   0.7938269   0.5909604  )
        16        Zn     tau(  16) = (   0.1249053   0.7937898   0.5911170  )
        17        Zn     tau(  17) = (   0.2500000   0.1443376   0.1164999  )
        18        Zn     tau(  18) = (   0.7500000   0.1443376   0.1164999  )
        19        Zn     tau(  19) = (   0.2499566   0.1443139   0.5910485  )
        20        Zn     tau(  20) = (   0.7500401   0.1444360   0.5909256  )
        21        Zn     tau(  21) = (   0.1250000   0.3608439   0.1164999  )
        22        Zn     tau(  22) = (   0.6250000   0.3608439   0.1164999  )
        23        Zn     tau(  23) = (   0.1249684   0.3608327   0.5904686  )
        24        Zn     tau(  24) = (   0.6250220   0.3609386   0.5917101  )
        25        Zn     tau(  25) = (  -0.0000000   0.5773503   0.1164999  )
        26        Zn     tau(  26) = (   0.5000000   0.5773503   0.1164999  )
        27        Zn     tau(  27) = (  -0.0000983   0.5773031   0.5910657  )
        28        Zn     tau(  28) = (   0.5000885   0.5773473   0.5912976  )
        29        Zn     tau(  29) = (  -0.1250000   0.7938566   0.1164999  )
        30        Zn     tau(  30) = (   0.3750000   0.7938566   0.1164999  )
        31        Zn     tau(  31) = (  -0.1251014   0.7937984   0.5915674  )
        32        Zn     tau(  32) = (   0.3751324   0.7938157   0.5904624  )
        33        Zn     tau(  33) = (   0.1250000   0.0721688   0.3494996  )
        34        Zn     tau(  34) = (   0.6250000   0.0721688   0.3494996  )
        35        Zn     tau(  35) = (   0.1246193   0.0719582   0.8323171  )
        36        Zn     tau(  36) = (   0.6247863   0.0721058   0.8327879  )
        37        Zn     tau(  37) = (   0.0000000   0.2886751   0.3494996  )
        38        Zn     tau(  38) = (   0.5000000   0.2886751   0.3494996  )
        39        Zn     tau(  39) = (  -0.0004141   0.2885605   0.8324874  )
        40        Zn     tau(  40) = (   0.4998445   0.2884781   0.8325306  )
        41        Zn     tau(  41) = (  -0.1250000   0.5051815   0.3494996  )
        42        Zn     tau(  42) = (   0.3750000   0.5051815   0.3494996  )
        43        Zn     tau(  43) = (  -0.1253003   0.5051007   0.8330462  )
        44        Zn     tau(  44) = (   0.3745658   0.5052859   0.8281149  )
        45        Zn     tau(  45) = (  -0.2500000   0.7216878   0.3494996  )
        46        Zn     tau(  46) = (   0.2500000   0.7216878   0.3494996  )
        47        Zn     tau(  47) = (  -0.2502782   0.7215646   0.8329798  )
        48        Zn     tau(  48) = (   0.2496056   0.7217398   0.8326485  )
        49        Zn     tau(  49) = (   0.3750000   0.0721688   0.3494996  )
        50        Zn     tau(  50) = (   0.8750000   0.0721688   0.3494996  )
        51        Zn     tau(  51) = (   0.3747307   0.0719485   0.8330090  )
        52        Zn     tau(  52) = (   0.8747167   0.0720990   0.8321645  )
        53        Zn     tau(  53) = (   0.2500000   0.2886751   0.3494996  )
        54        Zn     tau(  54) = (   0.7500000   0.2886751   0.3494996  )
        55        Zn     tau(  55) = (   0.2494612   0.2883582   0.8293599  )
        56        Zn     tau(  56) = (   0.7498011   0.2885935   0.8327814  )
        57        Zn     tau(  57) = (   0.1250000   0.5051815   0.3494996  )
        58        Zn     tau(  58) = (   0.6250000   0.5051815   0.3494996  )
        59        Zn     tau(  59) = (   0.1245013   0.5051684   0.8329884  )
        60        Zn     tau(  60) = (   0.6248259   0.5050968   0.8330687  )
[...]
        65        C      tau(  65) = (   0.0958764   0.5780630   1.6266218  )
        66        C      tau(  66) = (   0.1592900   0.5413514   1.5117823  )
        67        C      tau(  67) = (   0.1331186   0.4223444   1.4537430  )
        68        C      tau(  68) = (   0.2494630   0.6235525   1.4540805  )
        69        C      tau(  69) = (   0.3114430   0.5879637   1.3424436  )
        70        C      tau(  70) = (   0.1951033   0.3867376   1.3420579  )
        71        C      tau(  71) = (   0.2856606   0.4687460   1.2841507  )
        72        N      tau(  72) = (   0.0437068   0.6087514   1.7212212  )
        73        N      tau(  73) = (   0.3516227   0.4311666   1.1765539  )
        74        H      tau(  74) = (   0.3975496   0.4995526   1.1243887  )
        75        H      tau(  75) = (   0.3155708   0.3581561   1.1229390  )
        76        H      tau(  76) = (   0.0633638   0.3580351   1.4977940  )
        77        H      tau(  77) = (   0.2702523   0.7159615   1.4984413  )
        78        H      tau(  78) = (   0.3818570   0.6523126   1.2991872  )
        79        H      tau(  79) = (   0.1745302   0.2937755   1.2984412  )

   Crystallographic axes

     site n.     atom                  positions (cryst. coord.)
         1        Zn     tau(   1) = (  0.0833333  0.1666667  0.0513044  )
         2        Zn     tau(   2) = (  0.5833333  0.1666667  0.0513044  )
         3        Zn     tau(   3) = (  0.0834625  0.1667124  0.2599187  )
         4        Zn     tau(   4) = (  0.5832446  0.1666976  0.2605806  )
[...]
     atom   60 type  1   force =     0.00000000    0.00000000    0.00000000
[...]
     atom   65 type  2   force =    -0.00777968    0.00474453    0.01419771
     atom   66 type  2   force =     0.00234999   -0.00132511   -0.00537082
     atom   67 type  2   force =     0.00110992    0.00004203   -0.00115310
     atom   68 type  2   force =     0.00046740   -0.00118096   -0.00119024
     atom   69 type  2   force =    -0.00146856   -0.00023205    0.00139025
     atom   70 type  2   force =    -0.00062408    0.00121835    0.00152290
     atom   71 type  2   force =    -0.00359964    0.00200580    0.00554909
     atom   72 type  3   force =    -0.00437317    0.00258991    0.00792611
     atom   73 type  3   force =     0.00491051   -0.00289033    0.00187342
     atom   74 type  4   force =     0.00000000    0.00000000    0.00000000
     atom   75 type  4   force =     0.00000000    0.00000000    0.00000000
     atom   76 type  4   force =     0.00000000    0.00000000    0.00000000
     atom   77 type  4   force =     0.00000000    0.00000000    0.00000000
     atom   78 type  4   force =     0.00000000    0.00000000    0.00000000
     atom   79 type  4   force =     0.00000000    0.00000000    0.00000000
     The Hubbard contrib.    to forces
     atom    1 type  1   force =     0.00000000    0.00000000    0.00000000
     atom    2 type  1   force =     0.00000000    0.00000000    0.00000000
     atom    3 type  1   force =     0.00000000    0.00000000    0.00000000
     atom    4 type  1   force =     0.00000000    0.00000000    0.00000000
     atom    5 type  1   force =     0.00000000    0.00000000    0.00000000
     atom    6 type  1   force =     0.00000000    0.00000000    0.00000000
     atom    7 type  1   force =     0.00000000    0.00000000    0.00000000
     atom    8 type  1   force =     0.00000000    0.00000000    0.00000000
     atom    9 type  1   force =     0.00000000    0.00000000    0.00000000
     atom   10 type  1   force =     0.00000000    0.00000000    0.00000000
     atom   11 type  1   force =     0.00000000    0.00000000    0.00000000
     atom   12 type  1   force =     0.00000000    0.00000000    0.00000000
     atom   13 type  1   force =     0.00000000    0.00000000    0.00000000
     atom   14 type  1   force =     0.00000000    0.00000000    0.00000000
     atom   15 type  1   force =     0.00000000    0.00000000    0.00000000
     atom   16 type  1   force =     0.00000000    0.00000000    0.00000000
     atom   17 type  1   force =     0.00000000    0.00000000    0.00000000
     atom   18 type  1   force =     0.00000000    0.00000000    0.00000000
     atom   19 type  1   force =     0.00000000    0.00000000    0.00000000
     atom   20 type  1   force =     0.00000000    0.00000000    0.00000000
     atom   21 type  1   force =     0.00000000    0.00000000    0.00000000
     atom   22 type  1   force =     0.00000000    0.00000000    0.00000000
     atom   23 type  1   force =     0.00000000    0.00000000    0.00000000
     atom   24 type  1   force =     0.00000000    0.00000000    0.00000000
     atom   25 type  1   force =     0.00000000    0.00000000    0.00000000
     atom   26 type  1   force =     0.00000000    0.00000000    0.00000000
     atom   27 type  1   force =     0.00000000    0.00000000    0.00000000
     atom   28 type  1   force =     0.00000000    0.00000000    0.00000000
     atom   29 type  1   force =     0.00000000    0.00000000    0.00000000
     atom   30 type  1   force =     0.00000000    0.00000000    0.00000000
     atom   31 type  1   force =     0.00000000    0.00000000    0.00000000
     atom   32 type  1   force =     0.00000000    0.00000000    0.00000000
     atom   33 type  1   force =     0.00000000    0.00000000    0.00000000
     atom   34 type  1   force =     0.00000000    0.00000000    0.00000000
     atom   35 type  1   force =     0.00000000    0.00000000    0.00000000
     atom   36 type  1   force =     0.00000000    0.00000000    0.00000000
     atom   37 type  1   force =     0.00000000    0.00000000    0.00000000
     atom   38 type  1   force =     0.00000000    0.00000000    0.00000000
     atom   39 type  1   force =     0.00000000    0.00000000    0.00000000
     atom   40 type  1   force =     0.00000000    0.00000000    0.00000000
     atom   41 type  1   force =     0.00000000    0.00000000    0.00000000
     atom   42 type  1   force =     0.00000000    0.00000000    0.00000000
     atom   43 type  1   force =     0.00000000    0.00000000    0.00000000
     atom   44 type  1   force =     0.00000000    0.00000000    0.00000000
     atom   45 type  1   force =     0.00000000    0.00000000    0.00000000
     atom   46 type  1   force =     0.00000000    0.00000000    0.00000000
     atom   47 type  1   force =     0.00000000    0.00000000    0.00000000
     atom   48 type  1   force =     0.00000000    0.00000000    0.00000000
     atom   49 type  1   force =     0.00000000    0.00000000    0.00000000
     atom   50 type  1   force =     0.00000000    0.00000000    0.00000000
     atom   51 type  1   force =     0.00000000    0.00000000    0.00000000
     atom   52 type  1   force =     0.00000000    0.00000000    0.00000000
     atom   53 type  1   force =     0.00000000    0.00000000    0.00000000
     atom   54 type  1   force =     0.00000000    0.00000000    0.00000000
     atom   55 type  1   force =     0.00000000    0.00000000    0.00000000
     atom   56 type  1   force =     0.00000000    0.00000000    0.00000000
     atom   57 type  1   force =     0.00000000    0.00000000    0.00000000
     atom   58 type  1   force =     0.00000000    0.00000000    0.00000000
     atom   59 type  1   force =     0.00000000    0.00000000    0.00000000
     atom   60 type  1   force =     0.00000000    0.00000000    0.00000000
[...]
     atom   65 type  2   force =     0.00000000    0.00000000    0.00000000
     atom   66 type  2   force =     0.00000000    0.00000000    0.00000000
     atom   67 type  2   force =     0.00000000    0.00000000    0.00000000
     atom   68 type  2   force =     0.00000000    0.00000000    0.00000000
     atom   69 type  2   force =     0.00000000    0.00000000    0.00000000
     atom   70 type  2   force =     0.00000000    0.00000000    0.00000000
     atom   71 type  2   force =     0.00000000    0.00000000    0.00000000
     atom   72 type  3   force =     0.00000000    0.00000000    0.00000000
     atom   73 type  3   force =     0.00000000    0.00000000    0.00000000
     atom   74 type  4   force =     0.00000000    0.00000000    0.00000000
     atom   75 type  4   force =     0.00000000    0.00000000    0.00000000
     atom   76 type  4   force =     0.00000000    0.00000000    0.00000000
     atom   77 type  4   force =     0.00000000    0.00000000    0.00000000
     atom   78 type  4   force =     0.00000000    0.00000000    0.00000000
     atom   79 type  4   force =     0.00000000    0.00000000    0.00000000
     The SCF correction term to forces
     atom    1 type  1   force =    -0.00018504   -0.00026554    0.00068703
     atom    2 type  1   force =     0.00019107   -0.00028470    0.00066292
     atom    3 type  1   force =    -0.00018795   -0.00049445   -0.00044551
     atom    4 type  1   force =     0.00018536   -0.00028666   -0.00040834
     atom    5 type  1   force =    -0.00041501   -0.00015346    0.00063154
     atom    6 type  1   force =     0.00040690   -0.00044016    0.00019596
     atom    7 type  1   force =    -0.00069946   -0.00034654   -0.00042969
     atom    8 type  1   force =     0.00068151   -0.00070894   -0.00019495
     atom    9 type  1   force =     0.00001827    0.00015380    0.00073132
     atom   10 type  1   force =    -0.00003460    0.00037597    0.00007141
     atom   11 type  1   force =    -0.00018671    0.00027819   -0.00045986
     atom   12 type  1   force =     0.00018423    0.00045847   -0.00020941
     atom   13 type  1   force =     0.00022553    0.00006191    0.00076836
     atom   14 type  1   force =    -0.00024443    0.00053828    0.00053832
     atom   15 type  1   force =     0.00032475    0.00012660   -0.00046688
     atom   16 type  1   force =    -0.00034566    0.00095900   -0.00041489
     atom   17 type  1   force =    -0.00000759   -0.00064750    0.00057667
     atom   18 type  1   force =     0.00000239    0.00010337    0.00076444
     atom   19 type  1   force =    -0.00000586   -0.00100225   -0.00038712
     atom   20 type  1   force =     0.00000759    0.00020481   -0.00045751
     atom   21 type  1   force =    -0.00042863   -0.00041661    0.00021408
     atom   22 type  1   force =     0.00043462   -0.00016477    0.00061983
     atom   23 type  1   force =    -0.00050562   -0.00081818   -0.00026775
     atom   24 type  1   force =     0.00052773   -0.00023443   -0.00036861
     atom   25 type  1   force =    -0.00064190    0.00025977    0.00039638
     atom   26 type  1   force =     0.00066938    0.00027981    0.00038966
     atom   27 type  1   force =    -0.00104743    0.00038023   -0.00037776
     atom   28 type  1   force =     0.00104505    0.00038801   -0.00028331
     atom   29 type  1   force =    -0.00021747    0.00004628    0.00077069
     atom   30 type  1   force =     0.00023441    0.00055606    0.00054921
     atom   31 type  1   force =    -0.00050968    0.00023145   -0.00050214
     atom   32 type  1   force =     0.00053600    0.00085631   -0.00039328
     atom   33 type  1   force =    -0.00000541   -0.00053510   -0.00013673
     atom   34 type  1   force =    -0.00001282    0.00031045   -0.00024244
     atom   35 type  1   force =     0.00001548   -0.00031884   -0.00053464
     atom   36 type  1   force =    -0.00002466    0.00030422   -0.00042609
     atom   37 type  1   force =    -0.00069498   -0.00067011   -0.00030667
     atom   38 type  1   force =     0.00069677   -0.00058907   -0.00022639
     atom   39 type  1   force =    -0.00037649   -0.00044130   -0.00022133
     atom   40 type  1   force =     0.00040431   -0.00030514   -0.00031834
     atom   41 type  1   force =    -0.00078240    0.00011932   -0.00030517
     atom   42 type  1   force =     0.00074590    0.00009702   -0.00039001
     atom   43 type  1   force =    -0.00052747    0.00001363   -0.00027382
     atom   44 type  1   force =     0.00052256    0.00000102    0.00013753
     atom   45 type  1   force =    -0.00005556    0.00020258   -0.00012499
     atom   46 type  1   force =     0.00006375    0.00103245   -0.00040759
     atom   47 type  1   force =    -0.00015042    0.00014077   -0.00059350
     atom   48 type  1   force =     0.00013925    0.00057071    0.00002025
     atom   49 type  1   force =    -0.00004077   -0.00048987   -0.00016982
     atom   50 type  1   force =     0.00005676    0.00026367   -0.00020612
     atom   51 type  1   force =    -0.00005063   -0.00017433   -0.00051115
     atom   52 type  1   force =     0.00006013    0.00015580   -0.00045576
     atom   53 type  1   force =     0.00001668   -0.00105369   -0.00031978
     atom   54 type  1   force =    -0.00001805   -0.00017166   -0.00021190
     atom   55 type  1   force =     0.00008664   -0.00062159   -0.00003248
     atom   56 type  1   force =    -0.00011198   -0.00009702   -0.00048739
     atom   57 type  1   force =    -0.00066621    0.00007439   -0.00049869
     atom   58 type  1   force =     0.00067944    0.00014106   -0.00020433
     atom   59 type  1   force =    -0.00028484   -0.00002851    0.00024956
     atom   60 type  1   force =     0.00030753    0.00004243   -0.00041460
[...]
     atom   65 type  2   force =    -0.00006448    0.00003745    0.00012299
     atom   66 type  2   force =     0.00005778   -0.00003290   -0.00010397
     atom   67 type  2   force =     0.00003596   -0.00013594   -0.00015506
     atom   68 type  2   force =     0.00013612    0.00003730   -0.00015493
     atom   69 type  2   force =     0.00000740   -0.00007911   -0.00007104
     atom   70 type  2   force =     0.00007278    0.00003351   -0.00007071
     atom   71 type  2   force =    -0.00003498    0.00002037    0.00006184
     atom   72 type  3   force =    -0.00007146    0.00004191    0.00014053
     atom   73 type  3   force =    -0.00007996    0.00004672    0.00016175
     atom   74 type  4   force =     0.00000263    0.00001332    0.00001219
     atom   75 type  4   force =    -0.00000997   -0.00000872    0.00001213
     atom   76 type  4   force =    -0.00000133   -0.00001839   -0.00001126
     atom   77 type  4   force =     0.00001529    0.00001030   -0.00001128
     atom   78 type  4   force =    -0.00001259   -0.00001779    0.00000536
     atom   79 type  4   force =     0.00000915    0.00001977    0.00000559

     Total force =     0.052058     Total SCF correction =     0.006061
     SCF correction compared to forces is large: reduce conv_thr to get better values

     Computing stress (Cartesian axis) and pressure

     negative rho (up, down):  3.899E-03 0.000E+00
          total   stress  (Ry/bohr**3)                   (kbar)     P=       -2.10
  -0.00001676  -0.00000187   0.00000306           -2.47       -0.28        0.45
  -0.00000187  -0.00001885  -0.00000136           -0.28       -2.77       -0.20
   0.00000306  -0.00000136  -0.00000715            0.45       -0.20       -1.05

     kinetic stress (kbar)  17149.49    -19.11     32.85
                              -19.11  17127.65    -19.11
                               32.85    -19.11  17208.88

     local   stress (kbar)**********   -335.65   1281.17
                             -335.65**********   -743.01
                             1281.17   -743.011456482.81

     nonloc. stress (kbar)  -1608.33      0.86     -3.61
                                0.86  -1607.31      2.10
                               -3.61      2.10  -1669.08

     hartree stress (kbar) 756659.37    115.03   -503.07
                              115.03 756791.72    291.43
                             -503.07    291.43-681198.34

     exc-cor stress (kbar)  -8422.15      0.85     -1.81
                                0.85  -8421.17      1.05
                               -1.81      1.05  -8431.79

     corecor stress (kbar)    -83.18     -0.25      0.56
                               -0.25    -83.47     -0.33
                                0.56     -0.33    -83.62

     ewald   stress (kbar) 676331.03    237.99   -805.64
                              237.99 676604.84    467.66
                             -805.64    467.66-782309.91

     hubbard stress (kbar)      0.00      0.00      0.00
                                0.00      0.00      0.00
                                0.00      0.00      0.00

     DFT-D   stress (kbar)      0.00      0.00      0.00
                                0.00      0.00      0.00
                                0.00      0.00      0.00

     XDM     stress (kbar)      0.00      0.00      0.00
                                0.00      0.00      0.00
                                0.00      0.00      0.00

     dft-nl  stress (kbar)      0.00      0.00      0.00
                                0.00      0.00      0.00
                                0.00      0.00      0.00

     TS-vdW  stress (kbar)      0.00      0.00      0.00
                                0.00      0.00      0.00
                                0.00      0.00      0.00

     MDB     stress (kbar)      0.00      0.00      0.00
                                0.00      0.00      0.00
                                0.00      0.00      0.00

     3D-RISM stress (kbar)      0.00      0.00      0.00
                                0.00      0.00      0.00
                                0.00      0.00      0.00

     Writing all to output data dir ./tmp/Zn002_4x4x2_primitive_14Avacumn_bridgesite_tilted_parallel_ABN.save/ :
     XML data file, charge density, pseudopotentials, collected wavefunctions

     General routines

     Parallel routines

     PAW routines

   This run was terminated on:   6:25:24  22Mar2025

   JOB DONE.
Note: The following floating-point exceptions are signalling: IEEE_DENORMAL
Note: The following floating-point exceptions are signalling: IEEE_DENORMAL
Note: The following floating-point exceptions are signalling: IEEE_DENORMAL
Note: The following floating-point exceptions are signalling: IEEE_DENORMAL
Note: The following floating-point exceptions are signalling: IEEE_DENORMAL
Note: The following floating-point exceptions are signalling: IEEE_DENORMAL
Note: The following floating-point exceptions are signalling: IEEE_DENORMAL
Note: The following floating-point exceptions are signalling: IEEE_DENORMAL
Note: The following floating-point exceptions are signalling: IEEE_DENORMAL
Note: The following floating-point exceptions are signalling: IEEE_DENORMAL