     Program PWSCF v.7.3.1 starts on 22Mar2025 at  2:17:29

     Waiting for input...
     Reading input from standard input
Warning: card &CELL ignored
Warning: card   CELL_DOFREE = 'ALL' ignored
Warning: card / ignored

     Current dimensions of program PWSCF are:
     Max number of different atomic species (ntypx) = 10
     Max number of k-points (npk) =  40000
     Max angular momentum in pseudopotentials (lmaxx) =  4
     file C.pbe-n-kjpaw_psl.1.0.0.UPF: wavefunction(s)  2S 2P renormalized

     R & G space division:  proc/nbgrp/npool/nimage =      32
     Subspace diagonalization in iterative solution of the eigenvalue problem:
     one sub-group per band group will be used

     Using Slab Decomposition

     bravais-lattice index     =            0
     lattice parameter (alat)  =      19.7617  a.u.
     unit-cell volume          =   15176.5939 (a.u.)^3
     number of atoms/cell      =           79
     number of atomic types    =            4
     number of electrons       =      1324.00
     number of Kohn-Sham states=          794
     kinetic-energy cutoff     =      50.0000  Ry
     charge density cutoff     =     200.0000  Ry
     scf convergence threshold =      7.3E-07
     mixing beta               =       0.7000
     number of iterations used =            8  plain     mixing
     Exchange-correlation= PBE
                           (   1   4   3   4   0   0   0)

     celldm(1)=  19.761696  celldm(2)=   0.000000  celldm(3)=   0.000000
     celldm(4)=   0.000000  celldm(5)=   0.000000  celldm(6)=   0.000000

     crystal axes: (cart. coord. in units of alat)
               a(1) = (   1.000000   0.000000   0.000000 )
               a(2) = (  -0.500000   0.866025   0.000000 )
               a(3) = (   0.000000   0.000000   2.270759 )

     reciprocal axes: (cart. coord. in units 2 pi/alat)
               b(1) = (  1.000000  0.577350 -0.000000 )
               b(2) = (  0.000000  1.154701  0.000000 )
               b(3) = (  0.000000 -0.000000  0.440381 )

     PseudoPot. # 1 for Zn read from file:
     /home/ys/qepseudo/SSSP_1.3.0_PBE_efficiency/Zn_pbe_v1.uspp.F.UPF
     MD5 check sum: df62231357ef9e81f77b2b3087fa5675
     Pseudo is Ultrasoft, Zval = 20.0
     Generated by new atomic code, or converted to UPF format
     Using radial grid of  943 points,  6 beta functions with:
                l(1) =   0
                l(2) =   0
                l(3) =   1
                l(4) =   1
                l(5) =   2
                l(6) =   2
     Q(r) pseudized with  8 coefficients,  rinner =    1.100   1.100   1.100
                                                       1.100   1.100

     PseudoPot. # 2 for C  read from file:
     /home/ys/qepseudo/SSSP_1.3.0_PBE_efficiency/C.pbe-n-kjpaw_psl.1.0.0.UPF
     MD5 check sum: 5d2aebdfa2cae82b50a7e79e9516da0f
     Pseudo is Projector augmented-wave + core cor, Zval =  4.0
     Generated using "atomic" code by A. Dal Corso  v.5.1
     Shape of augmentation charge: PSQ
     Using radial grid of 1073 points,  4 beta functions with:
                l(1) =   0
                l(2) =   0
                l(3) =   1
                l(4) =   1
     Q(r) pseudized with 0 coefficients

     PseudoPot. # 3 for N  read from file:
     /home/ys/qepseudo/SSSP_1.3.0_PBE_efficiency/N.pbe-n-radius_5.UPF
     MD5 check sum: 16739722b17309cd8fe442a2ace49922
     Pseudo is Ultrasoft + core correction, Zval =  5.0
     Generated using "atomic" code by A. Dal Corso  v.5.1
     Using radial grid of 1085 points,  4 beta functions with:
                l(1) =   0
                l(2) =   0
                l(3) =   1
                l(4) =   1
     Q(r) pseudized with 0 coefficients

     PseudoPot. # 4 for H  read from file:
     /home/ys/qepseudo/SSSP_1.3.0_PBE_efficiency/H.pbe-rrkjus_psl.1.0.0.UPF
     MD5 check sum: f52b6d4d1c606e5624b1dc7b2218f220
     Pseudo is Ultrasoft, Zval =  1.0
     Generated using "atomic" code by A. Dal Corso  v.5.1
     Using radial grid of  929 points,  2 beta functions with:
                l(1) =   0
                l(2) =   0
     Q(r) pseudized with 0 coefficients

     atomic species   valence    mass     pseudopotential
     Zn               20.00    65.38000     Zn( 1.00)
     C                 4.00    12.01070     C ( 1.00)
     N                 5.00    14.00670     N ( 1.00)
     H                 1.00     1.00800     H ( 1.00)

     No symmetry found

                                    s                        frac. trans.

      isym =  1     identity

 cryst.   s( 1) = (     1          0          0      )
                  (     0          1          0      )
                  (     0          0          1      )

 cart.    s( 1) = (  1.0000000  0.0000000  0.0000000 )
                  (  0.0000000  1.0000000  0.0000000 )
                  (  0.0000000  0.0000000  1.0000000 )

   Cartesian axes

     site n.     atom                  positions (alat units)
         1        Zn     tau(   1) = (  -0.0000000   0.1443376   0.1164999  )
         2        Zn     tau(   2) = (   0.5000000   0.1443376   0.1164999  )
         3        Zn     tau(   3) = (   0.0001063   0.1443772   0.5902127  )
         4        Zn     tau(   4) = (   0.4998958   0.1443643   0.5917156  )
         5        Zn     tau(   5) = (  -0.1250000   0.3608439   0.1164999  )
         6        Zn     tau(   6) = (   0.3750000   0.3608439   0.1164999  )
         7        Zn     tau(   7) = (  -0.1249761   0.3609302   0.5908726  )
         8        Zn     tau(   8) = (   0.3749642   0.3608477   0.5913644  )
         9        Zn     tau(   9) = (  -0.2500000   0.5773503   0.1164999  )
        10        Zn     tau(  10) = (   0.2500000   0.5773503   0.1164999  )
        11        Zn     tau(  11) = (  -0.2499911   0.5773738   0.5915504  )
        12        Zn     tau(  12) = (   0.2499824   0.5772583   0.5907382  )
        13        Zn     tau(  13) = (  -0.3750000   0.7938566   0.1164999  )
        14        Zn     tau(  14) = (   0.1250000   0.7938566   0.1164999  )
        15        Zn     tau(  15) = (  -0.3749161   0.7938269   0.5909604  )
        16        Zn     tau(  16) = (   0.1249053   0.7937898   0.5911170  )
        17        Zn     tau(  17) = (   0.2500000   0.1443376   0.1164999  )
        18        Zn     tau(  18) = (   0.7500000   0.1443376   0.1164999  )
        19        Zn     tau(  19) = (   0.2499566   0.1443139   0.5910485  )
        20        Zn     tau(  20) = (   0.7500401   0.1444360   0.5909256  )
        21        Zn     tau(  21) = (   0.1250000   0.3608439   0.1164999  )
        22        Zn     tau(  22) = (   0.6250000   0.3608439   0.1164999  )
        23        Zn     tau(  23) = (   0.1249684   0.3608327   0.5904686  )
        24        Zn     tau(  24) = (   0.6250220   0.3609386   0.5917101  )
        25        Zn     tau(  25) = (  -0.0000000   0.5773503   0.1164999  )
        26        Zn     tau(  26) = (   0.5000000   0.5773503   0.1164999  )
        27        Zn     tau(  27) = (  -0.0000983   0.5773031   0.5910657  )
        28        Zn     tau(  28) = (   0.5000885   0.5773473   0.5912976  )
        29        Zn     tau(  29) = (  -0.1250000   0.7938566   0.1164999  )
        30        Zn     tau(  30) = (   0.3750000   0.7938566   0.1164999  )
        31        Zn     tau(  31) = (  -0.1251014   0.7937984   0.5915674  )
        32        Zn     tau(  32) = (   0.3751324   0.7938157   0.5904624  )
        33        Zn     tau(  33) = (   0.1250000   0.0721688   0.3494996  )
        34        Zn     tau(  34) = (   0.6250000   0.0721688   0.3494996  )
        35        Zn     tau(  35) = (   0.1248879   0.0718532   0.8329060  )
        36        Zn     tau(  36) = (   0.6248090   0.0717583   0.8328049  )
        37        Zn     tau(  37) = (   0.0000000   0.2886751   0.3494996  )
        38        Zn     tau(  38) = (   0.5000000   0.2886751   0.3494996  )
        39        Zn     tau(  39) = (  -0.0001280   0.2882322   0.8325392  )
        40        Zn     tau(  40) = (   0.5000317   0.2882198   0.8299154  )
        41        Zn     tau(  41) = (  -0.1250000   0.5051815   0.3494996  )
        42        Zn     tau(  42) = (   0.3750000   0.5051815   0.3494996  )
        43        Zn     tau(  43) = (  -0.1251048   0.5047623   0.8328278  )
        44        Zn     tau(  44) = (   0.3750239   0.5052482   0.8296160  )
        45        Zn     tau(  45) = (  -0.2500000   0.7216878   0.3494996  )
        46        Zn     tau(  46) = (   0.2500000   0.7216878   0.3494996  )
        47        Zn     tau(  47) = (  -0.2501801   0.7214512   0.8331201  )
        48        Zn     tau(  48) = (   0.2499162   0.7216594   0.8327801  )
        49        Zn     tau(  49) = (   0.3750000   0.0721688   0.3494996  )
        50        Zn     tau(  50) = (   0.8750000   0.0721688   0.3494996  )
        51        Zn     tau(  51) = (   0.3747553   0.0716765   0.8331842  )
        52        Zn     tau(  52) = (   0.8749606   0.0720007   0.8324611  )
        53        Zn     tau(  53) = (   0.2500000   0.2886751   0.3494996  )
        54        Zn     tau(  54) = (   0.7500000   0.2886751   0.3494996  )
        55        Zn     tau(  55) = (   0.2496057   0.2878936   0.8304187  )
        56        Zn     tau(  56) = (   0.7499715   0.2884205   0.8328317  )
        57        Zn     tau(  57) = (   0.1250000   0.5051815   0.3494996  )
        58        Zn     tau(  58) = (   0.6250000   0.5051815   0.3494996  )
        59        Zn     tau(  59) = (   0.1246732   0.5049557   0.8297126  )
        60        Zn     tau(  60) = (   0.6250091   0.5051114   0.8332599  )
[...]
        65        C      tau(  65) = (   0.3121632   0.4311113   1.6964342  )
        66        C      tau(  66) = (   0.3122896   0.4204090   1.5604959  )
        67        C      tau(  67) = (   0.4138005   0.3587948   1.4966485  )
        68        C      tau(  68) = (   0.2104919   0.4698859   1.4871331  )
        69        C      tau(  69) = (   0.2096482   0.4579993   1.3552399  )
        70        C      tau(  70) = (   0.4131239   0.3470413   1.3647054  )
        71        C      tau(  71) = (   0.3111834   0.3962412   1.2910151  )
        72        N      tau(  72) = (   0.3121978   0.4390811   1.8084500  )
        73        N      tau(  73) = (   0.3078497   0.3790063   1.1605640  )
        74        H      tau(  74) = (   0.2477278   0.4345804   1.1075559  )
        75        H      tau(  75) = (   0.3906677   0.3561011   1.1145264  )
        76        H      tau(  76) = (   0.4933030   0.3197881   1.5522512  )
        77        H      tau(  77) = (   0.1308241   0.5172172   1.5356201  )
        78        H      tau(  78) = (   0.1291686   0.4962579   1.3001987  )
        79        H      tau(  79) = (   0.4927366   0.2987888   1.3166715  )

   Crystallographic axes

     site n.     atom                  positions (cryst. coord.)
         1        Zn     tau(   1) = (  0.0833333  0.1666667  0.0513044  )
         2        Zn     tau(   2) = (  0.5833333  0.1666667  0.0513044  )
         3        Zn     tau(   3) = (  0.0834625  0.1667124  0.2599187  )
         4        Zn     tau(   4) = (  0.5832446  0.1666976  0.2605806  )
[...]
     atom   60 type  1   force =     0.00000000    0.00000000    0.00000000
[...]
     atom   65 type  2   force =     0.00023930    0.00124751    0.01702621
     atom   66 type  2   force =     0.00024160   -0.00064725   -0.00498077
     atom   67 type  2   force =    -0.00067557    0.00006412   -0.00179284
     atom   68 type  2   force =     0.00047372   -0.00052933   -0.00214092
     atom   69 type  2   force =     0.00102114   -0.00008256    0.00158681
     atom   70 type  2   force =    -0.00102146    0.00046010    0.00175856
     atom   71 type  2   force =     0.00051650    0.00093918    0.00568471
     atom   72 type  3   force =     0.00000629    0.00064259    0.00934551
     atom   73 type  3   force =    -0.00281398   -0.00514300   -0.00110102
     atom   74 type  4   force =     0.00000000    0.00000000    0.00000000
     atom   75 type  4   force =     0.00000000    0.00000000    0.00000000
     atom   76 type  4   force =     0.00000000    0.00000000    0.00000000
     atom   77 type  4   force =     0.00000000    0.00000000    0.00000000
     atom   78 type  4   force =     0.00000000    0.00000000    0.00000000
     atom   79 type  4   force =     0.00000000    0.00000000    0.00000000
     The Hubbard contrib.    to forces
     atom    1 type  1   force =     0.00000000    0.00000000    0.00000000
     atom    2 type  1   force =     0.00000000    0.00000000    0.00000000
     atom    3 type  1   force =     0.00000000    0.00000000    0.00000000
     atom    4 type  1   force =     0.00000000    0.00000000    0.00000000
     atom    5 type  1   force =     0.00000000    0.00000000    0.00000000
     atom    6 type  1   force =     0.00000000    0.00000000    0.00000000
     atom    7 type  1   force =     0.00000000    0.00000000    0.00000000
     atom    8 type  1   force =     0.00000000    0.00000000    0.00000000
     atom    9 type  1   force =     0.00000000    0.00000000    0.00000000
     atom   10 type  1   force =     0.00000000    0.00000000    0.00000000
     atom   11 type  1   force =     0.00000000    0.00000000    0.00000000
     atom   12 type  1   force =     0.00000000    0.00000000    0.00000000
     atom   13 type  1   force =     0.00000000    0.00000000    0.00000000
     atom   14 type  1   force =     0.00000000    0.00000000    0.00000000
     atom   15 type  1   force =     0.00000000    0.00000000    0.00000000
     atom   16 type  1   force =     0.00000000    0.00000000    0.00000000
     atom   17 type  1   force =     0.00000000    0.00000000    0.00000000
     atom   18 type  1   force =     0.00000000    0.00000000    0.00000000
     atom   19 type  1   force =     0.00000000    0.00000000    0.00000000
     atom   20 type  1   force =     0.00000000    0.00000000    0.00000000
     atom   21 type  1   force =     0.00000000    0.00000000    0.00000000
     atom   22 type  1   force =     0.00000000    0.00000000    0.00000000
     atom   23 type  1   force =     0.00000000    0.00000000    0.00000000
     atom   24 type  1   force =     0.00000000    0.00000000    0.00000000
     atom   25 type  1   force =     0.00000000    0.00000000    0.00000000
     atom   26 type  1   force =     0.00000000    0.00000000    0.00000000
     atom   27 type  1   force =     0.00000000    0.00000000    0.00000000
     atom   28 type  1   force =     0.00000000    0.00000000    0.00000000
     atom   29 type  1   force =     0.00000000    0.00000000    0.00000000
     atom   30 type  1   force =     0.00000000    0.00000000    0.00000000
     atom   31 type  1   force =     0.00000000    0.00000000    0.00000000
     atom   32 type  1   force =     0.00000000    0.00000000    0.00000000
     atom   33 type  1   force =     0.00000000    0.00000000    0.00000000
     atom   34 type  1   force =     0.00000000    0.00000000    0.00000000
     atom   35 type  1   force =     0.00000000    0.00000000    0.00000000
     atom   36 type  1   force =     0.00000000    0.00000000    0.00000000
     atom   37 type  1   force =     0.00000000    0.00000000    0.00000000
     atom   38 type  1   force =     0.00000000    0.00000000    0.00000000
     atom   39 type  1   force =     0.00000000    0.00000000    0.00000000
     atom   40 type  1   force =     0.00000000    0.00000000    0.00000000
     atom   41 type  1   force =     0.00000000    0.00000000    0.00000000
     atom   42 type  1   force =     0.00000000    0.00000000    0.00000000
     atom   43 type  1   force =     0.00000000    0.00000000    0.00000000
     atom   44 type  1   force =     0.00000000    0.00000000    0.00000000
     atom   45 type  1   force =     0.00000000    0.00000000    0.00000000
     atom   46 type  1   force =     0.00000000    0.00000000    0.00000000
     atom   47 type  1   force =     0.00000000    0.00000000    0.00000000
     atom   48 type  1   force =     0.00000000    0.00000000    0.00000000
     atom   49 type  1   force =     0.00000000    0.00000000    0.00000000
     atom   50 type  1   force =     0.00000000    0.00000000    0.00000000
     atom   51 type  1   force =     0.00000000    0.00000000    0.00000000
     atom   52 type  1   force =     0.00000000    0.00000000    0.00000000
     atom   53 type  1   force =     0.00000000    0.00000000    0.00000000
     atom   54 type  1   force =     0.00000000    0.00000000    0.00000000
     atom   55 type  1   force =     0.00000000    0.00000000    0.00000000
     atom   56 type  1   force =     0.00000000    0.00000000    0.00000000
     atom   57 type  1   force =     0.00000000    0.00000000    0.00000000
     atom   58 type  1   force =     0.00000000    0.00000000    0.00000000
     atom   59 type  1   force =     0.00000000    0.00000000    0.00000000
     atom   60 type  1   force =     0.00000000    0.00000000    0.00000000
[...]
     atom   65 type  2   force =     0.00000000    0.00000000    0.00000000
     atom   66 type  2   force =     0.00000000    0.00000000    0.00000000
     atom   67 type  2   force =     0.00000000    0.00000000    0.00000000
     atom   68 type  2   force =     0.00000000    0.00000000    0.00000000
     atom   69 type  2   force =     0.00000000    0.00000000    0.00000000
     atom   70 type  2   force =     0.00000000    0.00000000    0.00000000
     atom   71 type  2   force =     0.00000000    0.00000000    0.00000000
     atom   72 type  3   force =     0.00000000    0.00000000    0.00000000
     atom   73 type  3   force =     0.00000000    0.00000000    0.00000000
     atom   74 type  4   force =     0.00000000    0.00000000    0.00000000
     atom   75 type  4   force =     0.00000000    0.00000000    0.00000000
     atom   76 type  4   force =     0.00000000    0.00000000    0.00000000
     atom   77 type  4   force =     0.00000000    0.00000000    0.00000000
     atom   78 type  4   force =     0.00000000    0.00000000    0.00000000
     atom   79 type  4   force =     0.00000000    0.00000000    0.00000000
     The SCF correction term to forces
     atom    1 type  1   force =    -0.00038541   -0.00030464    0.00047611
     atom    2 type  1   force =     0.00039123   -0.00053651    0.00034965
     atom    3 type  1   force =    -0.00068290   -0.00047764   -0.00022594
     atom    4 type  1   force =     0.00068015   -0.00085534   -0.00024409
     atom    5 type  1   force =    -0.00033516   -0.00001734    0.00053254
     atom    6 type  1   force =     0.00031628   -0.00017573   -0.00014926
     atom    7 type  1   force =    -0.00055671   -0.00004333   -0.00028126
     atom    8 type  1   force =     0.00053518   -0.00025800   -0.00011454
     atom    9 type  1   force =     0.00019957    0.00018286    0.00063202
     atom   10 type  1   force =    -0.00020467    0.00062727    0.00002732
     atom   11 type  1   force =     0.00032551    0.00027329   -0.00031771
     atom   12 type  1   force =    -0.00031740    0.00102916   -0.00016951
     atom   13 type  1   force =     0.00013386   -0.00008332    0.00057124
     atom   14 type  1   force =    -0.00014699    0.00029309    0.00054030
     atom   15 type  1   force =     0.00019881   -0.00015913   -0.00025452
     atom   16 type  1   force =    -0.00019935    0.00047897   -0.00028881
     atom   17 type  1   force =    -0.00012154   -0.00074187    0.00019017
     atom   18 type  1   force =     0.00012239   -0.00007108    0.00064150
     atom   19 type  1   force =    -0.00018786   -0.00120169   -0.00015445
     atom   20 type  1   force =     0.00019109   -0.00012150   -0.00031059
     atom   21 type  1   force =    -0.00064028   -0.00012864    0.00000812
     atom   22 type  1   force =     0.00066042   -0.00006424    0.00036174
     atom   23 type  1   force =    -0.00104218   -0.00018424   -0.00013748
     atom   24 type  1   force =     0.00106534   -0.00011935   -0.00026523
     atom   25 type  1   force =    -0.00058540    0.00034036    0.00042967
     atom   26 type  1   force =     0.00058739    0.00048206    0.00022124
     atom   27 type  1   force =    -0.00094522    0.00055685   -0.00027430
     atom   28 type  1   force =     0.00092964    0.00076357   -0.00020906
     atom   29 type  1   force =    -0.00005767   -0.00027295    0.00062248
     atom   30 type  1   force =     0.00006921    0.00048122    0.00050484
     atom   31 type  1   force =    -0.00006625   -0.00045391   -0.00029519
     atom   32 type  1   force =     0.00006192    0.00078044   -0.00025504
     atom   33 type  1   force =    -0.00033027   -0.00076242   -0.00024628
     atom   34 type  1   force =     0.00032278   -0.00018962   -0.00015091
     atom   35 type  1   force =    -0.00023107   -0.00048715   -0.00040480
     atom   36 type  1   force =     0.00023245   -0.00013381   -0.00054784
     atom   37 type  1   force =    -0.00101985   -0.00032652   -0.00026532
     atom   38 type  1   force =     0.00099831   -0.00053503   -0.00033467
     atom   39 type  1   force =    -0.00065863   -0.00027459   -0.00033164
     atom   40 type  1   force =     0.00068594   -0.00039744   -0.00014739
     atom   41 type  1   force =    -0.00048155    0.00027291   -0.00015498
     atom   42 type  1   force =     0.00046599    0.00064479   -0.00041410
     atom   43 type  1   force =    -0.00031585    0.00015860   -0.00055653
     atom   44 type  1   force =     0.00032937    0.00048728    0.00007526
     atom   45 type  1   force =     0.00017743   -0.00014063   -0.00013458
     atom   46 type  1   force =    -0.00019027    0.00102378   -0.00023288
     atom   47 type  1   force =     0.00008615   -0.00004177   -0.00062362
     atom   48 type  1   force =    -0.00009275    0.00070119   -0.00034335
     atom   49 type  1   force =     0.00021851   -0.00105729   -0.00025214
     atom   50 type  1   force =    -0.00020956    0.00008512   -0.00014446
     atom   51 type  1   force =     0.00009735   -0.00069626   -0.00039582
     atom   52 type  1   force =    -0.00009839    0.00005865   -0.00055507
     atom   53 type  1   force =    -0.00029125   -0.00066615   -0.00045185
     atom   54 type  1   force =     0.00029479   -0.00016187   -0.00015080
     atom   55 type  1   force =    -0.00025425   -0.00052928    0.00008123
     atom   56 type  1   force =     0.00023399   -0.00013793   -0.00054769
     atom   57 type  1   force =    -0.00095353    0.00058841   -0.00035841
     atom   58 type  1   force =     0.00099260    0.00035540   -0.00021919
     atom   59 type  1   force =    -0.00066685    0.00038743   -0.00009905
     atom   60 type  1   force =     0.00064635    0.00025829   -0.00040687
[...]
     atom   65 type  2   force =    -0.00000078    0.00000789    0.00010347
     atom   66 type  2   force =    -0.00000247   -0.00000636   -0.00008217
     atom   67 type  2   force =     0.00007564   -0.00005416   -0.00014187
     atom   68 type  2   force =    -0.00007630    0.00002883   -0.00014833
     atom   69 type  2   force =     0.00004537   -0.00002726   -0.00005300
     atom   70 type  2   force =    -0.00004261    0.00002037   -0.00006226
     atom   71 type  2   force =     0.00000550    0.00001400    0.00009217
     atom   72 type  3   force =    -0.00000002    0.00000803    0.00010929
     atom   73 type  3   force =     0.00001256    0.00002831    0.00021018
     atom   74 type  4   force =    -0.00001200    0.00001363    0.00001981
     atom   75 type  4   force =     0.00001863   -0.00000324    0.00001969
     atom   76 type  4   force =     0.00001250   -0.00000784   -0.00000911
     atom   77 type  4   force =    -0.00001183    0.00000539   -0.00001066
     atom   78 type  4   force =     0.00001543   -0.00000737    0.00000966
     atom   79 type  4   force =    -0.00001498    0.00000909    0.00000722

     Total force =     0.052234     Total SCF correction =     0.006273
     SCF correction compared to forces is large: reduce conv_thr to get better values

     Computing stress (Cartesian axis) and pressure

     negative rho (up, down):  3.990E-03 0.000E+00
          total   stress  (Ry/bohr**3)                   (kbar)     P=       -1.89
  -0.00001679   0.00000189  -0.00000047           -2.47        0.28       -0.07
   0.00000189  -0.00001428   0.00000045            0.28       -2.10        0.07
  -0.00000047   0.00000045  -0.00000738           -0.07        0.07       -1.09

     kinetic stress (kbar)  17132.24     27.87     -1.25
                               27.87  17167.79     -3.48
                               -1.25     -3.48  17186.64

     local   stress (kbar)**********    756.70    -69.48
                              756.70**********   -256.59
                              -69.48   -256.591455748.72

     nonloc. stress (kbar)  -1607.83     -2.00      0.23
                               -2.00  -1610.30      0.72
                                0.23      0.72  -1666.28

     hartree stress (kbar) 756882.36   -284.96     27.12
                             -284.96 756528.17    104.19
                               27.12    104.19-680949.94

     exc-cor stress (kbar)  -8421.48     -1.38      0.11
                               -1.38  -8423.23      0.29
                                0.11      0.29  -8430.51

     corecor stress (kbar)    -83.38      0.42     -0.04
                                0.42    -82.86     -0.10
                               -0.04     -0.10    -84.05

     ewald   stress (kbar) 676611.35   -496.37     43.24
                             -496.37 675990.38    155.04
                               43.24    155.04-781805.66

     hubbard stress (kbar)      0.00      0.00      0.00
                                0.00      0.00      0.00
                                0.00      0.00      0.00

     DFT-D   stress (kbar)      0.00      0.00      0.00
                                0.00      0.00      0.00
                                0.00      0.00      0.00

     XDM     stress (kbar)      0.00      0.00      0.00
                                0.00      0.00      0.00
                                0.00      0.00      0.00

     dft-nl  stress (kbar)      0.00      0.00      0.00
                                0.00      0.00      0.00
                                0.00      0.00      0.00

     TS-vdW  stress (kbar)      0.00      0.00      0.00
                                0.00      0.00      0.00
                                0.00      0.00      0.00

     MDB     stress (kbar)      0.00      0.00      0.00
                                0.00      0.00      0.00
                                0.00      0.00      0.00

     3D-RISM stress (kbar)      0.00      0.00      0.00
                                0.00      0.00      0.00
                                0.00      0.00      0.00

     Writing all to output data dir ./tmp/Zn002_4x4x2_primitive_14Avacumn_bridgesite_upright_cross_ABN.save/ :
     XML data file, charge density, pseudopotentials, collected wavefunctions

     General routines

     Parallel routines

     PAW routines

   This run was terminated on:   6:10:55  22Mar2025

   JOB DONE.
Note: The following floating-point exceptions are signalling: IEEE_DENORMAL
Note: The following floating-point exceptions are signalling: IEEE_DENORMAL
Note: The following floating-point exceptions are signalling: IEEE_DENORMAL
Note: The following floating-point exceptions are signalling: IEEE_DENORMAL
Note: The following floating-point exceptions are signalling: IEEE_DENORMAL
Note: The following floating-point exceptions are signalling: IEEE_DENORMAL
Note: The following floating-point exceptions are signalling: IEEE_DENORMAL
Note: The following floating-point exceptions are signalling: IEEE_DENORMAL
Note: The following floating-point exceptions are signalling: IEEE_DENORMAL
Note: The following floating-point exceptions are signalling: IEEE_DENORMAL