     Program PWSCF v.7.3.1 starts on 22Mar2025 at  2:22: 9

     Waiting for input...
     Reading input from standard input
Warning: card &CELL ignored
Warning: card   CELL_DOFREE = 'ALL' ignored
Warning: card / ignored

     Current dimensions of program PWSCF are:
     Max number of different atomic species (ntypx) = 10
     Max number of k-points (npk) =  40000
     Max angular momentum in pseudopotentials (lmaxx) =  4
     file C.pbe-n-kjpaw_psl.1.0.0.UPF: wavefunction(s)  2S 2P renormalized

     R & G space division:  proc/nbgrp/npool/nimage =      32
     Subspace diagonalization in iterative solution of the eigenvalue problem:
     one sub-group per band group will be used

     Using Slab Decomposition

     bravais-lattice index     =            0
     lattice parameter (alat)  =      19.7617  a.u.
     unit-cell volume          =   15176.5939 (a.u.)^3
     number of atoms/cell      =           79
     number of atomic types    =            4
     number of electrons       =      1324.00
     number of Kohn-Sham states=          794
     kinetic-energy cutoff     =      50.0000  Ry
     charge density cutoff     =     200.0000  Ry
     scf convergence threshold =      7.3E-07
     mixing beta               =       0.7000
     number of iterations used =            8  plain     mixing
     Exchange-correlation= PBE
                           (   1   4   3   4   0   0   0)

     celldm(1)=  19.761696  celldm(2)=   0.000000  celldm(3)=   0.000000
     celldm(4)=   0.000000  celldm(5)=   0.000000  celldm(6)=   0.000000

     crystal axes: (cart. coord. in units of alat)
               a(1) = (   1.000000   0.000000   0.000000 )
               a(2) = (  -0.500000   0.866025   0.000000 )
               a(3) = (   0.000000   0.000000   2.270759 )

     reciprocal axes: (cart. coord. in units 2 pi/alat)
               b(1) = (  1.000000  0.577350 -0.000000 )
               b(2) = (  0.000000  1.154701  0.000000 )
               b(3) = (  0.000000 -0.000000  0.440381 )

     PseudoPot. # 1 for Zn read from file:
     /home/ys/qepseudo/SSSP_1.3.0_PBE_efficiency/Zn_pbe_v1.uspp.F.UPF
     MD5 check sum: df62231357ef9e81f77b2b3087fa5675
     Pseudo is Ultrasoft, Zval = 20.0
     Generated by new atomic code, or converted to UPF format
     Using radial grid of  943 points,  6 beta functions with:
                l(1) =   0
                l(2) =   0
                l(3) =   1
                l(4) =   1
                l(5) =   2
                l(6) =   2
     Q(r) pseudized with  8 coefficients,  rinner =    1.100   1.100   1.100
                                                       1.100   1.100

     PseudoPot. # 2 for C  read from file:
     /home/ys/qepseudo/SSSP_1.3.0_PBE_efficiency/C.pbe-n-kjpaw_psl.1.0.0.UPF
     MD5 check sum: 5d2aebdfa2cae82b50a7e79e9516da0f
     Pseudo is Projector augmented-wave + core cor, Zval =  4.0
     Generated using "atomic" code by A. Dal Corso  v.5.1
     Shape of augmentation charge: PSQ
     Using radial grid of 1073 points,  4 beta functions with:
                l(1) =   0
                l(2) =   0
                l(3) =   1
                l(4) =   1
     Q(r) pseudized with 0 coefficients

     PseudoPot. # 3 for N  read from file:
     /home/ys/qepseudo/SSSP_1.3.0_PBE_efficiency/N.pbe-n-radius_5.UPF
     MD5 check sum: 16739722b17309cd8fe442a2ace49922
     Pseudo is Ultrasoft + core correction, Zval =  5.0
     Generated using "atomic" code by A. Dal Corso  v.5.1
     Using radial grid of 1085 points,  4 beta functions with:
                l(1) =   0
                l(2) =   0
                l(3) =   1
                l(4) =   1
     Q(r) pseudized with 0 coefficients

     PseudoPot. # 4 for H  read from file:
     /home/ys/qepseudo/SSSP_1.3.0_PBE_efficiency/H.pbe-rrkjus_psl.1.0.0.UPF
     MD5 check sum: f52b6d4d1c606e5624b1dc7b2218f220
     Pseudo is Ultrasoft, Zval =  1.0
     Generated using "atomic" code by A. Dal Corso  v.5.1
     Using radial grid of  929 points,  2 beta functions with:
                l(1) =   0
                l(2) =   0
     Q(r) pseudized with 0 coefficients

     atomic species   valence    mass     pseudopotential
     Zn               20.00    65.38000     Zn( 1.00)
     C                 4.00    12.01070     C ( 1.00)
     N                 5.00    14.00670     N ( 1.00)
     H                 1.00     1.00800     H ( 1.00)

     No symmetry found

                                    s                        frac. trans.

      isym =  1     identity

 cryst.   s( 1) = (     1          0          0      )
                  (     0          1          0      )
                  (     0          0          1      )

 cart.    s( 1) = (  1.0000000  0.0000000  0.0000000 )
                  (  0.0000000  1.0000000  0.0000000 )
                  (  0.0000000  0.0000000  1.0000000 )

   Cartesian axes

     site n.     atom                  positions (alat units)
         1        Zn     tau(   1) = (  -0.0000000   0.1443376   0.1164999  )
         2        Zn     tau(   2) = (   0.5000000   0.1443376   0.1164999  )
         3        Zn     tau(   3) = (   0.0001063   0.1443772   0.5902127  )
         4        Zn     tau(   4) = (   0.4998958   0.1443643   0.5917156  )
         5        Zn     tau(   5) = (  -0.1250000   0.3608439   0.1164999  )
         6        Zn     tau(   6) = (   0.3750000   0.3608439   0.1164999  )
         7        Zn     tau(   7) = (  -0.1249761   0.3609302   0.5908726  )
         8        Zn     tau(   8) = (   0.3749642   0.3608477   0.5913644  )
         9        Zn     tau(   9) = (  -0.2500000   0.5773503   0.1164999  )
        10        Zn     tau(  10) = (   0.2500000   0.5773503   0.1164999  )
        11        Zn     tau(  11) = (  -0.2499911   0.5773738   0.5915504  )
        12        Zn     tau(  12) = (   0.2499824   0.5772583   0.5907382  )
        13        Zn     tau(  13) = (  -0.3750000   0.7938566   0.1164999  )
        14        Zn     tau(  14) = (   0.1250000   0.7938566   0.1164999  )
        15        Zn     tau(  15) = (  -0.3749161   0.7938269   0.5909604  )
        16        Zn     tau(  16) = (   0.1249053   0.7937898   0.5911170  )
        17        Zn     tau(  17) = (   0.2500000   0.1443376   0.1164999  )
        18        Zn     tau(  18) = (   0.7500000   0.1443376   0.1164999  )
        19        Zn     tau(  19) = (   0.2499566   0.1443139   0.5910485  )
        20        Zn     tau(  20) = (   0.7500401   0.1444360   0.5909256  )
        21        Zn     tau(  21) = (   0.1250000   0.3608439   0.1164999  )
        22        Zn     tau(  22) = (   0.6250000   0.3608439   0.1164999  )
        23        Zn     tau(  23) = (   0.1249684   0.3608327   0.5904686  )
        24        Zn     tau(  24) = (   0.6250220   0.3609386   0.5917101  )
        25        Zn     tau(  25) = (  -0.0000000   0.5773503   0.1164999  )
        26        Zn     tau(  26) = (   0.5000000   0.5773503   0.1164999  )
        27        Zn     tau(  27) = (  -0.0000983   0.5773031   0.5910657  )
        28        Zn     tau(  28) = (   0.5000885   0.5773473   0.5912976  )
        29        Zn     tau(  29) = (  -0.1250000   0.7938566   0.1164999  )
        30        Zn     tau(  30) = (   0.3750000   0.7938566   0.1164999  )
        31        Zn     tau(  31) = (  -0.1251014   0.7937984   0.5915674  )
        32        Zn     tau(  32) = (   0.3751324   0.7938157   0.5904624  )
        33        Zn     tau(  33) = (   0.1250000   0.0721688   0.3494996  )
        34        Zn     tau(  34) = (   0.6250000   0.0721688   0.3494996  )
        35        Zn     tau(  35) = (   0.1250976   0.0723078   0.8327302  )
        36        Zn     tau(  36) = (   0.6253336   0.0720262   0.8325286  )
        37        Zn     tau(  37) = (   0.0000000   0.2886751   0.3494996  )
        38        Zn     tau(  38) = (   0.5000000   0.2886751   0.3494996  )
        39        Zn     tau(  39) = (   0.0002605   0.2887230   0.8324759  )
        40        Zn     tau(  40) = (   0.5000185   0.2888500   0.8222816  )
        41        Zn     tau(  41) = (  -0.1250000   0.5051815   0.3494996  )
        42        Zn     tau(  42) = (   0.3750000   0.5051815   0.3494996  )
        43        Zn     tau(  43) = (  -0.1246995   0.5052162   0.8329296  )
        44        Zn     tau(  44) = (   0.3749749   0.5053363   0.8331073  )
        45        Zn     tau(  45) = (  -0.2500000   0.7216878   0.3494996  )
        46        Zn     tau(  46) = (   0.2500000   0.7216878   0.3494996  )
        47        Zn     tau(  47) = (  -0.2498680   0.7217556   0.8328129  )
        48        Zn     tau(  48) = (   0.2502219   0.7216908   0.8325092  )
        49        Zn     tau(  49) = (   0.3750000   0.0721688   0.3494996  )
        50        Zn     tau(  50) = (   0.8750000   0.0721688   0.3494996  )
        51        Zn     tau(  51) = (   0.3749501   0.0719756   0.8310087  )
        52        Zn     tau(  52) = (   0.8752068   0.0722307   0.8324498  )
        53        Zn     tau(  53) = (   0.2500000   0.2886751   0.3494996  )
        54        Zn     tau(  54) = (   0.7500000   0.2886751   0.3494996  )
        55        Zn     tau(  55) = (   0.2500012   0.2888721   0.8330127  )
        56        Zn     tau(  56) = (   0.7504211   0.2886925   0.8325905  )
        57        Zn     tau(  57) = (   0.1250000   0.5051815   0.3494996  )
        58        Zn     tau(  58) = (   0.6250000   0.5051815   0.3494996  )
        59        Zn     tau(  59) = (   0.1252168   0.5052210   0.8326684  )
        60        Zn     tau(  60) = (   0.6252512   0.5055055   0.8316787  )
[...]
        65        C      tau(  65) = (   0.5904981   0.2283912   1.6731445  )
        66        C      tau(  66) = (   0.5698895   0.2404519   1.5391412  )
        67        C      tau(  67) = (   0.5014263   0.1458033   1.4714414  )
        68        C      tau(  68) = (   0.6172452   0.3472291   1.4714026  )
        69        C      tau(  69) = (   0.5956323   0.3596281   1.3413489  )
        70        C      tau(  70) = (   0.4800317   0.1579701   1.3413588  )
        71        C      tau(  71) = (   0.5259692   0.2655781   1.2736714  )
        72        N      tau(  72) = (   0.6074609   0.2181130   1.7836931  )
        73        N      tau(  73) = (   0.4980687   0.2814406   1.1463215  )
        74        H      tau(  74) = (   0.5495944   0.3461654   1.0946919  )
        75        H      tau(  75) = (   0.4681946   0.2042512   1.0947269  )
        76        H      tau(  76) = (   0.4649053   0.0624605   1.5229664  )
        77        H      tau(  77) = (   0.6708181   0.4209701   1.5227006  )
        78        H      tau(  78) = (   0.6319213   0.4435592   1.2902875  )
        79        H      tau(  79) = (   0.4263117   0.0839705   1.2903085  )

   Crystallographic axes

     site n.     atom                  positions (cryst. coord.)
         1        Zn     tau(   1) = (  0.0833333  0.1666667  0.0513044  )
         2        Zn     tau(   2) = (  0.5833333  0.1666667  0.0513044  )
         3        Zn     tau(   3) = (  0.0834625  0.1667124  0.2599187  )
         4        Zn     tau(   4) = (  0.5832446  0.1666976  0.2605806  )
[...]
     atom   60 type  1   force =     0.00000000    0.00000000    0.00000000
[...]
     atom   65 type  2   force =     0.00222797   -0.00107408    0.01645445
     atom   66 type  2   force =    -0.00092914    0.00038408   -0.00463114
     atom   67 type  2   force =     0.00020502    0.00068135   -0.00146320
     atom   68 type  2   force =    -0.00063508   -0.00048477   -0.00146365
     atom   69 type  2   force =    -0.00004172   -0.00086087    0.00237997
     atom   70 type  2   force =     0.00072594    0.00064997    0.00232493
     atom   71 type  2   force =     0.00158377   -0.00084905    0.00670609
     atom   72 type  3   force =     0.00141884   -0.00086583    0.00923128
     atom   73 type  3   force =    -0.00493220    0.00282345   -0.00036987
     atom   74 type  4   force =     0.00000000    0.00000000    0.00000000
     atom   75 type  4   force =     0.00000000    0.00000000    0.00000000
     atom   76 type  4   force =     0.00000000    0.00000000    0.00000000
     atom   77 type  4   force =     0.00000000    0.00000000    0.00000000
     atom   78 type  4   force =     0.00000000    0.00000000    0.00000000
     atom   79 type  4   force =     0.00000000    0.00000000    0.00000000
     The Hubbard contrib.    to forces
     atom    1 type  1   force =     0.00000000    0.00000000    0.00000000
     atom    2 type  1   force =     0.00000000    0.00000000    0.00000000
     atom    3 type  1   force =     0.00000000    0.00000000    0.00000000
     atom    4 type  1   force =     0.00000000    0.00000000    0.00000000
     atom    5 type  1   force =     0.00000000    0.00000000    0.00000000
     atom    6 type  1   force =     0.00000000    0.00000000    0.00000000
     atom    7 type  1   force =     0.00000000    0.00000000    0.00000000
     atom    8 type  1   force =     0.00000000    0.00000000    0.00000000
     atom    9 type  1   force =     0.00000000    0.00000000    0.00000000
     atom   10 type  1   force =     0.00000000    0.00000000    0.00000000
     atom   11 type  1   force =     0.00000000    0.00000000    0.00000000
     atom   12 type  1   force =     0.00000000    0.00000000    0.00000000
     atom   13 type  1   force =     0.00000000    0.00000000    0.00000000
     atom   14 type  1   force =     0.00000000    0.00000000    0.00000000
     atom   15 type  1   force =     0.00000000    0.00000000    0.00000000
     atom   16 type  1   force =     0.00000000    0.00000000    0.00000000
     atom   17 type  1   force =     0.00000000    0.00000000    0.00000000
     atom   18 type  1   force =     0.00000000    0.00000000    0.00000000
     atom   19 type  1   force =     0.00000000    0.00000000    0.00000000
     atom   20 type  1   force =     0.00000000    0.00000000    0.00000000
     atom   21 type  1   force =     0.00000000    0.00000000    0.00000000
     atom   22 type  1   force =     0.00000000    0.00000000    0.00000000
     atom   23 type  1   force =     0.00000000    0.00000000    0.00000000
     atom   24 type  1   force =     0.00000000    0.00000000    0.00000000
     atom   25 type  1   force =     0.00000000    0.00000000    0.00000000
     atom   26 type  1   force =     0.00000000    0.00000000    0.00000000
     atom   27 type  1   force =     0.00000000    0.00000000    0.00000000
     atom   28 type  1   force =     0.00000000    0.00000000    0.00000000
     atom   29 type  1   force =     0.00000000    0.00000000    0.00000000
     atom   30 type  1   force =     0.00000000    0.00000000    0.00000000
     atom   31 type  1   force =     0.00000000    0.00000000    0.00000000
     atom   32 type  1   force =     0.00000000    0.00000000    0.00000000
     atom   33 type  1   force =     0.00000000    0.00000000    0.00000000
     atom   34 type  1   force =     0.00000000    0.00000000    0.00000000
     atom   35 type  1   force =     0.00000000    0.00000000    0.00000000
     atom   36 type  1   force =     0.00000000    0.00000000    0.00000000
     atom   37 type  1   force =     0.00000000    0.00000000    0.00000000
     atom   38 type  1   force =     0.00000000    0.00000000    0.00000000
     atom   39 type  1   force =     0.00000000    0.00000000    0.00000000
     atom   40 type  1   force =     0.00000000    0.00000000    0.00000000
     atom   41 type  1   force =     0.00000000    0.00000000    0.00000000
     atom   42 type  1   force =     0.00000000    0.00000000    0.00000000
     atom   43 type  1   force =     0.00000000    0.00000000    0.00000000
     atom   44 type  1   force =     0.00000000    0.00000000    0.00000000
     atom   45 type  1   force =     0.00000000    0.00000000    0.00000000
     atom   46 type  1   force =     0.00000000    0.00000000    0.00000000
     atom   47 type  1   force =     0.00000000    0.00000000    0.00000000
     atom   48 type  1   force =     0.00000000    0.00000000    0.00000000
     atom   49 type  1   force =     0.00000000    0.00000000    0.00000000
     atom   50 type  1   force =     0.00000000    0.00000000    0.00000000
     atom   51 type  1   force =     0.00000000    0.00000000    0.00000000
     atom   52 type  1   force =     0.00000000    0.00000000    0.00000000
     atom   53 type  1   force =     0.00000000    0.00000000    0.00000000
     atom   54 type  1   force =     0.00000000    0.00000000    0.00000000
     atom   55 type  1   force =     0.00000000    0.00000000    0.00000000
     atom   56 type  1   force =     0.00000000    0.00000000    0.00000000
     atom   57 type  1   force =     0.00000000    0.00000000    0.00000000
     atom   58 type  1   force =     0.00000000    0.00000000    0.00000000
     atom   59 type  1   force =     0.00000000    0.00000000    0.00000000
     atom   60 type  1   force =     0.00000000    0.00000000    0.00000000
[...]
     atom   65 type  2   force =     0.00000000    0.00000000    0.00000000
     atom   66 type  2   force =     0.00000000    0.00000000    0.00000000
     atom   67 type  2   force =     0.00000000    0.00000000    0.00000000
     atom   68 type  2   force =     0.00000000    0.00000000    0.00000000
     atom   69 type  2   force =     0.00000000    0.00000000    0.00000000
     atom   70 type  2   force =     0.00000000    0.00000000    0.00000000
     atom   71 type  2   force =     0.00000000    0.00000000    0.00000000
     atom   72 type  3   force =     0.00000000    0.00000000    0.00000000
     atom   73 type  3   force =     0.00000000    0.00000000    0.00000000
     atom   74 type  4   force =     0.00000000    0.00000000    0.00000000
     atom   75 type  4   force =     0.00000000    0.00000000    0.00000000
     atom   76 type  4   force =     0.00000000    0.00000000    0.00000000
     atom   77 type  4   force =     0.00000000    0.00000000    0.00000000
     atom   78 type  4   force =     0.00000000    0.00000000    0.00000000
     atom   79 type  4   force =     0.00000000    0.00000000    0.00000000
     The SCF correction term to forces
     atom    1 type  1   force =     0.00013534   -0.00008851    0.00059046
     atom    2 type  1   force =    -0.00013218   -0.00047846   -0.00001848
     atom    3 type  1   force =     0.00024269   -0.00020631   -0.00032664
     atom    4 type  1   force =    -0.00023469   -0.00077172   -0.00014585
     atom    5 type  1   force =     0.00057575    0.00023487    0.00046366
     atom    6 type  1   force =    -0.00057506    0.00036373    0.00007526
     atom    7 type  1   force =     0.00088284    0.00042729   -0.00031517
     atom    8 type  1   force =    -0.00086443    0.00055298   -0.00013881
     atom    9 type  1   force =     0.00032234    0.00037288    0.00051589
     atom   10 type  1   force =    -0.00032790    0.00021278    0.00055270
     atom   11 type  1   force =     0.00051451    0.00064879   -0.00034556
     atom   12 type  1   force =    -0.00051692    0.00035266   -0.00031095
     atom   13 type  1   force =    -0.00009604    0.00002040    0.00063778
     atom   14 type  1   force =     0.00011442   -0.00063375    0.00044870
     atom   15 type  1   force =    -0.00011689    0.00001029   -0.00036415
     atom   16 type  1   force =     0.00012312   -0.00100725   -0.00031131
     atom   17 type  1   force =    -0.00060455   -0.00024589    0.00033954
     atom   18 type  1   force =     0.00059906   -0.00032775    0.00022401
     atom   19 type  1   force =    -0.00096244   -0.00047998   -0.00025284
     atom   20 type  1   force =     0.00093941   -0.00051725   -0.00023248
     atom   21 type  1   force =    -0.00036326    0.00020267    0.00054265
     atom   22 type  1   force =     0.00036479    0.00039572    0.00000370
     atom   23 type  1   force =    -0.00058405    0.00031505   -0.00030591
     atom   24 type  1   force =     0.00057558    0.00065742   -0.00015439
     atom   25 type  1   force =     0.00007761   -0.00006256    0.00068489
     atom   26 type  1   force =    -0.00007269    0.00064100    0.00037372
     atom   27 type  1   force =     0.00004262   -0.00004913   -0.00039297
     atom   28 type  1   force =    -0.00004248    0.00106632   -0.00026870
     atom   29 type  1   force =    -0.00017751   -0.00050998    0.00049238
     atom   30 type  1   force =     0.00016088   -0.00009897    0.00060095
     atom   31 type  1   force =    -0.00032769   -0.00083893   -0.00033533
     atom   32 type  1   force =     0.00032103   -0.00015056   -0.00033290
     atom   33 type  1   force =    -0.00037398   -0.00029566   -0.00013771
     atom   34 type  1   force =     0.00040138   -0.00095777   -0.00033332
     atom   35 type  1   force =    -0.00023779   -0.00017176   -0.00050688
     atom   36 type  1   force =     0.00027491   -0.00061401   -0.00003646
     atom   37 type  1   force =     0.00020494    0.00015588   -0.00017802
     atom   38 type  1   force =    -0.00019266    0.00016849   -0.00044449
     atom   39 type  1   force =     0.00016140    0.00007284   -0.00046606
     atom   40 type  1   force =    -0.00016008    0.00013405    0.00018550
     atom   41 type  1   force =     0.00056903    0.00041176   -0.00011898
     atom   42 type  1   force =    -0.00059545    0.00088694   -0.00028561
     atom   43 type  1   force =     0.00035017    0.00023878   -0.00052794
     atom   44 type  1   force =    -0.00038734    0.00054750   -0.00025634
     atom   45 type  1   force =    -0.00001996   -0.00005082   -0.00008976
     atom   46 type  1   force =     0.00001929   -0.00028521   -0.00017384
     atom   47 type  1   force =    -0.00004892   -0.00000814   -0.00055644
     atom   48 type  1   force =     0.00004665   -0.00019429   -0.00046912
     atom   49 type  1   force =    -0.00067238   -0.00090014   -0.00027958
     atom   50 type  1   force =     0.00064580   -0.00038001   -0.00020255
     atom   51 type  1   force =    -0.00045759   -0.00054895   -0.00017289
     atom   52 type  1   force =     0.00041727   -0.00024307   -0.00036898
     atom   53 type  1   force =    -0.00105795    0.00013494   -0.00029452
     atom   54 type  1   force =     0.00102655    0.00018983   -0.00032812
     atom   55 type  1   force =    -0.00066739    0.00010072   -0.00023941
     atom   56 type  1   force =     0.00066439    0.00010706   -0.00005237
     atom   57 type  1   force =    -0.00042094    0.00025035   -0.00013893
     atom   58 type  1   force =     0.00044352    0.00104033   -0.00026650
     atom   59 type  1   force =    -0.00020556    0.00012211   -0.00057342
     atom   60 type  1   force =     0.00024307    0.00066647   -0.00020645
[...]
     atom   65 type  2   force =     0.00000950   -0.00000522    0.00006713
     atom   66 type  2   force =    -0.00001234    0.00000747   -0.00007897
     atom   67 type  2   force =    -0.00006559   -0.00005867   -0.00015207
     atom   68 type  2   force =     0.00001776    0.00008630   -0.00015206
     atom   69 type  2   force =    -0.00003897   -0.00004784   -0.00006371
     atom   70 type  2   force =     0.00002162    0.00005801   -0.00006381
     atom   71 type  2   force =     0.00002359   -0.00001317    0.00009870
     atom   72 type  3   force =     0.00001001   -0.00000582    0.00006763
     atom   73 type  3   force =     0.00004324   -0.00002422    0.00021497
     atom   74 type  4   force =     0.00001444    0.00001393    0.00001784
     atom   75 type  4   force =    -0.00000465   -0.00001944    0.00001785
     atom   76 type  4   force =    -0.00000845   -0.00001037   -0.00001087
     atom   77 type  4   force =     0.00000463    0.00001242   -0.00001092
     atom   78 type  4   force =    -0.00000844   -0.00001760    0.00000816
     atom   79 type  4   force =     0.00001085    0.00001616    0.00000815

     Total force =     0.053668     Total SCF correction =     0.006015
     SCF correction compared to forces is large: reduce conv_thr to get better values

     Computing stress (Cartesian axis) and pressure

     negative rho (up, down):  4.041E-03 0.000E+00
          total   stress  (Ry/bohr**3)                   (kbar)     P=       -1.79
  -0.00001513  -0.00000245  -0.00000062           -2.23       -0.36       -0.09
  -0.00000245  -0.00001799   0.00000020           -0.36       -2.65        0.03
  -0.00000062   0.00000020  -0.00000347           -0.09        0.03       -0.51

     kinetic stress (kbar)  17165.45    -27.87    -11.63
                              -27.87  17132.81      6.74
                              -11.63      6.74  17188.84

     local   stress (kbar)**********   -746.44   -523.34
                             -746.44**********    304.16
                             -523.34    304.161458301.65

     nonloc. stress (kbar)  -1610.05      1.92      1.46
                                1.92  -1607.82     -0.85
                                1.46     -0.85  -1666.47

     hartree stress (kbar) 757767.34    281.27    207.54
                              281.27 758094.76   -120.61
                              207.54   -120.61-682202.78

     exc-cor stress (kbar)  -8423.13      1.36      0.70
                                1.36  -8421.55     -0.41
                                0.70     -0.41  -8430.64

     corecor stress (kbar)    -82.90     -0.40     -0.23
                               -0.40    -83.37      0.13
                               -0.23      0.13    -84.00

     ewald   stress (kbar) 677279.24    489.81    325.41
                              489.81 677850.24   -189.14
                              325.41   -189.14-783107.11

     hubbard stress (kbar)      0.00      0.00      0.00
                                0.00      0.00      0.00
                                0.00      0.00      0.00

     DFT-D   stress (kbar)      0.00      0.00      0.00
                                0.00      0.00      0.00
                                0.00      0.00      0.00

     XDM     stress (kbar)      0.00      0.00      0.00
                                0.00      0.00      0.00
                                0.00      0.00      0.00

     dft-nl  stress (kbar)      0.00      0.00      0.00
                                0.00      0.00      0.00
                                0.00      0.00      0.00

     TS-vdW  stress (kbar)      0.00      0.00      0.00
                                0.00      0.00      0.00
                                0.00      0.00      0.00

     MDB     stress (kbar)      0.00      0.00      0.00
                                0.00      0.00      0.00
                                0.00      0.00      0.00

     3D-RISM stress (kbar)      0.00      0.00      0.00
                                0.00      0.00      0.00
                                0.00      0.00      0.00

     Writing all to output data dir ./tmp/Zn002_4x4x2_primitive_14Avacumn_topsite_upright_ABN.save/ :
     XML data file, charge density, pseudopotentials, collected wavefunctions

     General routines

     Parallel routines

     PAW routines

   This run was terminated on:   6:23:38  22Mar2025

   JOB DONE.
Note: The following floating-point exceptions are signalling: IEEE_DENORMAL
Note: The following floating-point exceptions are signalling: IEEE_DENORMAL
Note: The following floating-point exceptions are signalling: IEEE_DENORMAL
Note: The following floating-point exceptions are signalling: IEEE_DENORMAL
Note: The following floating-point exceptions are signalling: IEEE_DENORMAL
Note: The following floating-point exceptions are signalling: IEEE_DENORMAL
Note: The following floating-point exceptions are signalling: IEEE_DENORMAL
Note: The following floating-point exceptions are signalling: IEEE_DENORMAL
Note: The following floating-point exceptions are signalling: IEEE_DENORMAL
Note: The following floating-point exceptions are signalling: IEEE_DENORMAL