     Program PWSCF v.7.3.1 starts on 21Mar2025 at 23:31:58

     Waiting for input...
     Reading input from standard input
Warning: card &CELL ignored
Warning: card   CELL_DOFREE = 'ALL' ignored
Warning: card / ignored

     Current dimensions of program PWSCF are:
     Max number of different atomic species (ntypx) = 10
     Max number of k-points (npk) =  40000
     Max angular momentum in pseudopotentials (lmaxx) =  4
     file C.pbe-n-kjpaw_psl.1.0.0.UPF: wavefunction(s)  2S 2P renormalized

     R & G space division:  proc/nbgrp/npool/nimage =      32
     Subspace diagonalization in iterative solution of the eigenvalue problem:
     one sub-group per band group will be used

     Using Slab Decomposition

     bravais-lattice index     =            0
     lattice parameter (alat)  =      19.7617  a.u.
     unit-cell volume          =   15176.5939 (a.u.)^3
     number of atoms/cell      =           79
     number of atomic types    =            4
     number of electrons       =      1324.00
     number of Kohn-Sham states=          794
     kinetic-energy cutoff     =      50.0000  Ry
     charge density cutoff     =     200.0000  Ry
     scf convergence threshold =      7.3E-07
     mixing beta               =       0.7000
     number of iterations used =            8  plain     mixing
     Exchange-correlation= PBE
                           (   1   4   3   4   0   0   0)

     celldm(1)=  19.761696  celldm(2)=   0.000000  celldm(3)=   0.000000
     celldm(4)=   0.000000  celldm(5)=   0.000000  celldm(6)=   0.000000

     crystal axes: (cart. coord. in units of alat)
               a(1) = (   1.000000   0.000000   0.000000 )
               a(2) = (  -0.500000   0.866025   0.000000 )
               a(3) = (   0.000000   0.000000   2.270759 )

     reciprocal axes: (cart. coord. in units 2 pi/alat)
               b(1) = (  1.000000  0.577350 -0.000000 )
               b(2) = (  0.000000  1.154701  0.000000 )
               b(3) = (  0.000000 -0.000000  0.440381 )

     PseudoPot. # 1 for Zn read from file:
     /home/ys/qepseudo/SSSP_1.3.0_PBE_efficiency/Zn_pbe_v1.uspp.F.UPF
     MD5 check sum: df62231357ef9e81f77b2b3087fa5675
     Pseudo is Ultrasoft, Zval = 20.0
     Generated by new atomic code, or converted to UPF format
     Using radial grid of  943 points,  6 beta functions with:
                l(1) =   0
                l(2) =   0
                l(3) =   1
                l(4) =   1
                l(5) =   2
                l(6) =   2
     Q(r) pseudized with  8 coefficients,  rinner =    1.100   1.100   1.100
                                                       1.100   1.100

     PseudoPot. # 2 for C  read from file:
     /home/ys/qepseudo/SSSP_1.3.0_PBE_efficiency/C.pbe-n-kjpaw_psl.1.0.0.UPF
     MD5 check sum: 5d2aebdfa2cae82b50a7e79e9516da0f
     Pseudo is Projector augmented-wave + core cor, Zval =  4.0
     Generated using "atomic" code by A. Dal Corso  v.5.1
     Shape of augmentation charge: PSQ
     Using radial grid of 1073 points,  4 beta functions with:
                l(1) =   0
                l(2) =   0
                l(3) =   1
                l(4) =   1
     Q(r) pseudized with 0 coefficients

     PseudoPot. # 3 for N  read from file:
     /home/ys/qepseudo/SSSP_1.3.0_PBE_efficiency/N.pbe-n-radius_5.UPF
     MD5 check sum: 16739722b17309cd8fe442a2ace49922
     Pseudo is Ultrasoft + core correction, Zval =  5.0
     Generated using "atomic" code by A. Dal Corso  v.5.1
     Using radial grid of 1085 points,  4 beta functions with:
                l(1) =   0
                l(2) =   0
                l(3) =   1
                l(4) =   1
     Q(r) pseudized with 0 coefficients

     PseudoPot. # 4 for H  read from file:
     /home/ys/qepseudo/SSSP_1.3.0_PBE_efficiency/H.pbe-rrkjus_psl.1.0.0.UPF
     MD5 check sum: f52b6d4d1c606e5624b1dc7b2218f220
     Pseudo is Ultrasoft, Zval =  1.0
     Generated using "atomic" code by A. Dal Corso  v.5.1
     Using radial grid of  929 points,  2 beta functions with:
                l(1) =   0
                l(2) =   0
     Q(r) pseudized with 0 coefficients

     atomic species   valence    mass     pseudopotential
     Zn               20.00    65.38000     Zn( 1.00)
     C                 4.00    12.01070     C ( 1.00)
     N                 5.00    14.00670     N ( 1.00)
     H                 1.00     1.00800     H ( 1.00)

     No symmetry found

                                    s                        frac. trans.

      isym =  1     identity

 cryst.   s( 1) = (     1          0          0      )
                  (     0          1          0      )
                  (     0          0          1      )

 cart.    s( 1) = (  1.0000000  0.0000000  0.0000000 )
                  (  0.0000000  1.0000000  0.0000000 )
                  (  0.0000000  0.0000000  1.0000000 )

   Cartesian axes

     site n.     atom                  positions (alat units)
         1        Zn     tau(   1) = (  -0.0000000   0.1443376   0.1164999  )
         2        Zn     tau(   2) = (   0.5000000   0.1443376   0.1164999  )
         3        Zn     tau(   3) = (   0.0001063   0.1443772   0.5902127  )
         4        Zn     tau(   4) = (   0.4998958   0.1443643   0.5917156  )
         5        Zn     tau(   5) = (  -0.1250000   0.3608439   0.1164999  )
         6        Zn     tau(   6) = (   0.3750000   0.3608439   0.1164999  )
         7        Zn     tau(   7) = (  -0.1249761   0.3609302   0.5908726  )
         8        Zn     tau(   8) = (   0.3749642   0.3608477   0.5913644  )
         9        Zn     tau(   9) = (  -0.2500000   0.5773503   0.1164999  )
        10        Zn     tau(  10) = (   0.2500000   0.5773503   0.1164999  )
        11        Zn     tau(  11) = (  -0.2499911   0.5773738   0.5915504  )
        12        Zn     tau(  12) = (   0.2499824   0.5772583   0.5907382  )
        13        Zn     tau(  13) = (  -0.3750000   0.7938566   0.1164999  )
        14        Zn     tau(  14) = (   0.1250000   0.7938566   0.1164999  )
        15        Zn     tau(  15) = (  -0.3749161   0.7938269   0.5909604  )
        16        Zn     tau(  16) = (   0.1249053   0.7937898   0.5911170  )
        17        Zn     tau(  17) = (   0.2500000   0.1443376   0.1164999  )
        18        Zn     tau(  18) = (   0.7500000   0.1443376   0.1164999  )
        19        Zn     tau(  19) = (   0.2499566   0.1443139   0.5910485  )
        20        Zn     tau(  20) = (   0.7500401   0.1444360   0.5909256  )
        21        Zn     tau(  21) = (   0.1250000   0.3608439   0.1164999  )
        22        Zn     tau(  22) = (   0.6250000   0.3608439   0.1164999  )
        23        Zn     tau(  23) = (   0.1249684   0.3608327   0.5904686  )
        24        Zn     tau(  24) = (   0.6250220   0.3609386   0.5917101  )
        25        Zn     tau(  25) = (  -0.0000000   0.5773503   0.1164999  )
        26        Zn     tau(  26) = (   0.5000000   0.5773503   0.1164999  )
        27        Zn     tau(  27) = (  -0.0000983   0.5773031   0.5910657  )
        28        Zn     tau(  28) = (   0.5000885   0.5773473   0.5912976  )
        29        Zn     tau(  29) = (  -0.1250000   0.7938566   0.1164999  )
        30        Zn     tau(  30) = (   0.3750000   0.7938566   0.1164999  )
        31        Zn     tau(  31) = (  -0.1251014   0.7937984   0.5915674  )
        32        Zn     tau(  32) = (   0.3751324   0.7938157   0.5904624  )
        33        Zn     tau(  33) = (   0.1250000   0.0721688   0.3494996  )
        34        Zn     tau(  34) = (   0.6250000   0.0721688   0.3494996  )
        35        Zn     tau(  35) = (   0.1247726   0.0722058   0.8326360  )
        36        Zn     tau(  36) = (   0.6249486   0.0720367   0.8314330  )
        37        Zn     tau(  37) = (   0.0000000   0.2886751   0.3494996  )
        38        Zn     tau(  38) = (   0.5000000   0.2886751   0.3494996  )
        39        Zn     tau(  39) = (  -0.0001344   0.2886941   0.8326071  )
        40        Zn     tau(  40) = (   0.4993101   0.2889503   0.8277979  )
        41        Zn     tau(  41) = (  -0.1250000   0.5051815   0.3494996  )
        42        Zn     tau(  42) = (   0.3750000   0.5051815   0.3494996  )
        43        Zn     tau(  43) = (  -0.1249856   0.5051881   0.8329768  )
        44        Zn     tau(  44) = (   0.3745313   0.5054640   0.8331083  )
        45        Zn     tau(  45) = (  -0.2500000   0.7216878   0.3494996  )
        46        Zn     tau(  46) = (   0.2500000   0.7216878   0.3494996  )
        47        Zn     tau(  47) = (  -0.2500562   0.7216506   0.8329736  )
        48        Zn     tau(  48) = (   0.2499250   0.7217568   0.8325864  )
        49        Zn     tau(  49) = (   0.3750000   0.0721688   0.3494996  )
        50        Zn     tau(  50) = (   0.8750000   0.0721688   0.3494996  )
        51        Zn     tau(  51) = (   0.3746129   0.0720490   0.8311766  )
        52        Zn     tau(  52) = (   0.8749386   0.0722070   0.8322939  )
        53        Zn     tau(  53) = (   0.2500000   0.2886751   0.3494996  )
        54        Zn     tau(  54) = (   0.7500000   0.2886751   0.3494996  )
        55        Zn     tau(  55) = (   0.2494714   0.2888563   0.8328535  )
        56        Zn     tau(  56) = (   0.7500128   0.2887020   0.8317569  )
        57        Zn     tau(  57) = (   0.1250000   0.5051815   0.3494996  )
        58        Zn     tau(  58) = (   0.6250000   0.5051815   0.3494996  )
        59        Zn     tau(  59) = (   0.1248458   0.5052233   0.8329632  )
        60        Zn     tau(  60) = (   0.6248341   0.5054540   0.8318387  )
[...]
        65        C      tau(  65) = (   0.2017768   0.4833190   1.5410662  )
        66        C      tau(  66) = (   0.2769970   0.4311659   1.4401634  )
        67        C      tau(  67) = (   0.2561091   0.3048495   1.3971268  )
        68        C      tau(  68) = (   0.3740785   0.5044941   1.3817963  )
        69        C      tau(  69) = (   0.4487845   0.4529558   1.2851525  )
        70        C      tau(  70) = (   0.3304093   0.2533745   1.3001341  )
        71        C      tau(  71) = (   0.4300251   0.3255586   1.2438215  )
        72        N      tau(  72) = (   0.1399783   0.5260604   1.6245260  )
        73        N      tau(  73) = (   0.5111196   0.2708082   1.1559432  )
        74        H      tau(  74) = (   0.5673992   0.3288321   1.1013537  )
        75        H      tau(  75) = (   0.4832632   0.1886241   1.1115576  )
        76        H      tau(  76) = (   0.1804090   0.2476586   1.4411460  )
        77        H      tau(  77) = (   0.3903880   0.6027551   1.4136406  )
        78        H      tau(  78) = (   0.5250905   0.5102970   1.2419790  )
        79        H      tau(  79) = (   0.3141191   0.1547516   1.2688434  )

   Crystallographic axes

     site n.     atom                  positions (cryst. coord.)
         1        Zn     tau(   1) = (  0.0833333  0.1666667  0.0513044  )
         2        Zn     tau(   2) = (  0.5833333  0.1666667  0.0513044  )
         3        Zn     tau(   3) = (  0.0834625  0.1667124  0.2599187  )
         4        Zn     tau(   4) = (  0.5832446  0.1666976  0.2605806  )
[...]
     atom   59 type  1   force =     0.00000000    0.00000000    0.00000000
     atom   60 type  1   force =     0.00000000    0.00000000    0.00000000
[...]
     atom   65 type  2   force =    -0.00944447    0.00632694    0.01266798
     atom   66 type  2   force =     0.00324131   -0.00225321   -0.00409909
     atom   67 type  2   force =     0.00116927   -0.00025439   -0.00136179
     atom   68 type  2   force =     0.00053079   -0.00139880   -0.00109543
     atom   69 type  2   force =    -0.00144509    0.00005607    0.00212086
     atom   70 type  2   force =    -0.00065637    0.00159809    0.00124300
     atom   71 type  2   force =    -0.00389508    0.00247608    0.00468779
     atom   72 type  3   force =    -0.00517746    0.00358097    0.00703714
     atom   73 type  3   force =     0.00433084   -0.00231668    0.00296238
     atom   74 type  4   force =     0.00000000    0.00000000    0.00000000
     atom   75 type  4   force =     0.00000000    0.00000000    0.00000000
     atom   76 type  4   force =     0.00000000    0.00000000    0.00000000
     atom   77 type  4   force =     0.00000000    0.00000000    0.00000000
     atom   78 type  4   force =     0.00000000    0.00000000    0.00000000
     atom   79 type  4   force =     0.00000000    0.00000000    0.00000000
     The Hubbard contrib.    to forces
     atom    1 type  1   force =     0.00000000    0.00000000    0.00000000
     atom    2 type  1   force =     0.00000000    0.00000000    0.00000000
     atom    3 type  1   force =     0.00000000    0.00000000    0.00000000
     atom    4 type  1   force =     0.00000000    0.00000000    0.00000000
     atom    5 type  1   force =     0.00000000    0.00000000    0.00000000
     atom    6 type  1   force =     0.00000000    0.00000000    0.00000000
     atom    7 type  1   force =     0.00000000    0.00000000    0.00000000
     atom    8 type  1   force =     0.00000000    0.00000000    0.00000000
     atom    9 type  1   force =     0.00000000    0.00000000    0.00000000
     atom   10 type  1   force =     0.00000000    0.00000000    0.00000000
     atom   11 type  1   force =     0.00000000    0.00000000    0.00000000
     atom   12 type  1   force =     0.00000000    0.00000000    0.00000000
     atom   13 type  1   force =     0.00000000    0.00000000    0.00000000
     atom   14 type  1   force =     0.00000000    0.00000000    0.00000000
     atom   15 type  1   force =     0.00000000    0.00000000    0.00000000
     atom   16 type  1   force =     0.00000000    0.00000000    0.00000000
     atom   17 type  1   force =     0.00000000    0.00000000    0.00000000
     atom   18 type  1   force =     0.00000000    0.00000000    0.00000000
     atom   19 type  1   force =     0.00000000    0.00000000    0.00000000
     atom   20 type  1   force =     0.00000000    0.00000000    0.00000000
     atom   21 type  1   force =     0.00000000    0.00000000    0.00000000
     atom   22 type  1   force =     0.00000000    0.00000000    0.00000000
     atom   23 type  1   force =     0.00000000    0.00000000    0.00000000
     atom   24 type  1   force =     0.00000000    0.00000000    0.00000000
     atom   25 type  1   force =     0.00000000    0.00000000    0.00000000
     atom   26 type  1   force =     0.00000000    0.00000000    0.00000000
     atom   27 type  1   force =     0.00000000    0.00000000    0.00000000
     atom   28 type  1   force =     0.00000000    0.00000000    0.00000000
     atom   29 type  1   force =     0.00000000    0.00000000    0.00000000
     atom   30 type  1   force =     0.00000000    0.00000000    0.00000000
     atom   31 type  1   force =     0.00000000    0.00000000    0.00000000
     atom   32 type  1   force =     0.00000000    0.00000000    0.00000000
     atom   33 type  1   force =     0.00000000    0.00000000    0.00000000
     atom   34 type  1   force =     0.00000000    0.00000000    0.00000000
     atom   35 type  1   force =     0.00000000    0.00000000    0.00000000
     atom   36 type  1   force =     0.00000000    0.00000000    0.00000000
     atom   37 type  1   force =     0.00000000    0.00000000    0.00000000
     atom   38 type  1   force =     0.00000000    0.00000000    0.00000000
     atom   39 type  1   force =     0.00000000    0.00000000    0.00000000
     atom   40 type  1   force =     0.00000000    0.00000000    0.00000000
     atom   41 type  1   force =     0.00000000    0.00000000    0.00000000
     atom   42 type  1   force =     0.00000000    0.00000000    0.00000000
     atom   43 type  1   force =     0.00000000    0.00000000    0.00000000
     atom   44 type  1   force =     0.00000000    0.00000000    0.00000000
     atom   45 type  1   force =     0.00000000    0.00000000    0.00000000
     atom   46 type  1   force =     0.00000000    0.00000000    0.00000000
     atom   47 type  1   force =     0.00000000    0.00000000    0.00000000
     atom   48 type  1   force =     0.00000000    0.00000000    0.00000000
     atom   49 type  1   force =     0.00000000    0.00000000    0.00000000
     atom   50 type  1   force =     0.00000000    0.00000000    0.00000000
     atom   51 type  1   force =     0.00000000    0.00000000    0.00000000
     atom   52 type  1   force =     0.00000000    0.00000000    0.00000000
     atom   53 type  1   force =     0.00000000    0.00000000    0.00000000
     atom   54 type  1   force =     0.00000000    0.00000000    0.00000000
     atom   55 type  1   force =     0.00000000    0.00000000    0.00000000
     atom   56 type  1   force =     0.00000000    0.00000000    0.00000000
     atom   57 type  1   force =     0.00000000    0.00000000    0.00000000
     atom   58 type  1   force =     0.00000000    0.00000000    0.00000000
     atom   59 type  1   force =     0.00000000    0.00000000    0.00000000
     atom   60 type  1   force =     0.00000000    0.00000000    0.00000000
[...]
     atom   65 type  2   force =     0.00000000    0.00000000    0.00000000
     atom   66 type  2   force =     0.00000000    0.00000000    0.00000000
     atom   67 type  2   force =     0.00000000    0.00000000    0.00000000
     atom   68 type  2   force =     0.00000000    0.00000000    0.00000000
     atom   69 type  2   force =     0.00000000    0.00000000    0.00000000
     atom   70 type  2   force =     0.00000000    0.00000000    0.00000000
     atom   71 type  2   force =     0.00000000    0.00000000    0.00000000
     atom   72 type  3   force =     0.00000000    0.00000000    0.00000000
     atom   73 type  3   force =     0.00000000    0.00000000    0.00000000
     atom   74 type  4   force =     0.00000000    0.00000000    0.00000000
     atom   75 type  4   force =     0.00000000    0.00000000    0.00000000
     atom   76 type  4   force =     0.00000000    0.00000000    0.00000000
     atom   77 type  4   force =     0.00000000    0.00000000    0.00000000
     atom   78 type  4   force =     0.00000000    0.00000000    0.00000000
     atom   79 type  4   force =     0.00000000    0.00000000    0.00000000
     The SCF correction term to forces
     atom    1 type  1   force =    -0.00017632   -0.00014526    0.00062034
     atom    2 type  1   force =     0.00017039   -0.00053058    0.00016462
     atom    3 type  1   force =    -0.00041684   -0.00025401   -0.00061874
     atom    4 type  1   force =     0.00043550   -0.00071591   -0.00008703
     atom    5 type  1   force =     0.00026207   -0.00001654    0.00052647
     atom    6 type  1   force =    -0.00029281    0.00017580    0.00002401
     atom    7 type  1   force =    -0.00006088   -0.00004780   -0.00051537
     atom    8 type  1   force =     0.00005211   -0.00003256   -0.00018725
     atom    9 type  1   force =     0.00028013    0.00023029    0.00048434
     atom   10 type  1   force =    -0.00028461    0.00042985    0.00038613
     atom   11 type  1   force =     0.00034705    0.00021090   -0.00046743
     atom   12 type  1   force =    -0.00038251    0.00074967   -0.00059529
     atom   13 type  1   force =    -0.00013287    0.00006954    0.00056980
     atom   14 type  1   force =     0.00015051   -0.00022119    0.00051264
     atom   15 type  1   force =    -0.00001040    0.00001084   -0.00056374
     atom   16 type  1   force =     0.00000501    0.00007835   -0.00049823
     atom   17 type  1   force =    -0.00051432   -0.00038604    0.00030575
     atom   18 type  1   force =     0.00051886   -0.00027679    0.00049006
     atom   19 type  1   force =    -0.00040086   -0.00075639   -0.00037092
     atom   20 type  1   force =     0.00038560   -0.00022071   -0.00033976
     atom   21 type  1   force =    -0.00053539    0.00002652    0.00038649
     atom   22 type  1   force =     0.00056460    0.00013640    0.00017784
     atom   23 type  1   force =    -0.00084595   -0.00004912   -0.00059491
     atom   24 type  1   force =     0.00083933   -0.00002267   -0.00010598
     atom   25 type  1   force =    -0.00010045    0.00003475    0.00054774
     atom   26 type  1   force =     0.00009590    0.00062520    0.00032039
     atom   27 type  1   force =    -0.00041069    0.00023665   -0.00067695
     atom   28 type  1   force =     0.00045390    0.00072049   -0.00039186
     atom   29 type  1   force =    -0.00007869   -0.00037517    0.00047106
     atom   30 type  1   force =     0.00005837    0.00023151    0.00062299
     atom   31 type  1   force =    -0.00000998   -0.00040163   -0.00044807
     atom   32 type  1   force =     0.00001344    0.00049751   -0.00062310
     atom   33 type  1   force =    -0.00049082   -0.00033524   -0.00025036
     atom   34 type  1   force =     0.00051024   -0.00055503   -0.00012258
     atom   35 type  1   force =    -0.00011209   -0.00024358   -0.00042809
     atom   36 type  1   force =     0.00013738   -0.00000749   -0.00044810
     atom   37 type  1   force =    -0.00039790   -0.00014724   -0.00025307
     atom   38 type  1   force =     0.00040275   -0.00021506   -0.00023974
     atom   39 type  1   force =    -0.00043591   -0.00016873   -0.00042001
     atom   40 type  1   force =     0.00043073   -0.00025997    0.00004495
     atom   41 type  1   force =     0.00015488    0.00011948   -0.00012614
     atom   42 type  1   force =    -0.00016853    0.00075769   -0.00044789
     atom   43 type  1   force =    -0.00024066    0.00002246   -0.00053922
     atom   44 type  1   force =     0.00022292    0.00017846    0.00005705
     atom   45 type  1   force =     0.00003207   -0.00003890   -0.00013504
     atom   46 type  1   force =    -0.00005763    0.00041452   -0.00024300
     atom   47 type  1   force =     0.00007020   -0.00002620   -0.00054388
     atom   48 type  1   force =    -0.00008500    0.00046642   -0.00042307
     atom   49 type  1   force =    -0.00018009   -0.00084808   -0.00019425
     atom   50 type  1   force =     0.00015780   -0.00008005   -0.00015389
     atom   51 type  1   force =     0.00014682   -0.00033537   -0.00026525
     atom   52 type  1   force =    -0.00016834    0.00010120   -0.00059191
     atom   53 type  1   force =    -0.00075465   -0.00022193   -0.00044405
     atom   54 type  1   force =     0.00074583   -0.00013994   -0.00013692
     atom   55 type  1   force =    -0.00004818   -0.00029744    0.00005396
     atom   56 type  1   force =     0.00007672   -0.00012520   -0.00044222
     atom   57 type  1   force =    -0.00063418    0.00035230   -0.00033639
     atom   58 type  1   force =     0.00065695    0.00057512   -0.00021258
     atom   59 type  1   force =    -0.00034487    0.00019761   -0.00023486
     atom   60 type  1   force =     0.00036459    0.00003319   -0.00025751
[...]
     atom   65 type  2   force =    -0.00018442    0.00012789    0.00027026
     atom   66 type  2   force =     0.00011714   -0.00007968   -0.00014016
     atom   67 type  2   force =     0.00005225   -0.00017117   -0.00012194
     atom   68 type  2   force =     0.00016676    0.00001972   -0.00013804
     atom   69 type  2   force =     0.00001365   -0.00004914   -0.00002702
     atom   70 type  2   force =     0.00004716    0.00000667   -0.00003229
     atom   71 type  2   force =    -0.00005444    0.00003812    0.00006413
     atom   72 type  3   force =    -0.00021297    0.00014726    0.00031887
     atom   73 type  3   force =    -0.00006910    0.00004624    0.00007311
     atom   74 type  4   force =     0.00000872    0.00001524   -0.00000382
     atom   75 type  4   force =    -0.00001004   -0.00001522   -0.00000171
     atom   76 type  4   force =     0.00000018   -0.00002350   -0.00000685
     atom   77 type  4   force =     0.00001979    0.00000896   -0.00000974
     atom   78 type  4   force =    -0.00001114   -0.00001212    0.00000910
     atom   79 type  4   force =     0.00000527    0.00001519    0.00000658

     Total force =     0.052000     Total SCF correction =     0.005184

     Computing stress (Cartesian axis) and pressure

     negative rho (up, down):  4.275E-03 0.000E+00
          total   stress  (Ry/bohr**3)                   (kbar)     P=       -2.00
  -0.00001705  -0.00000143   0.00000337           -2.51       -0.21        0.50
  -0.00000143  -0.00001903  -0.00000168           -0.21       -2.80       -0.25
   0.00000337  -0.00000168  -0.00000472            0.50       -0.25       -0.69

     kinetic stress (kbar)  17139.93    -11.08     37.70
                              -11.08  17121.64    -21.00
                               37.70    -21.00  17224.56

     local   stress (kbar)**********     -5.01   1373.14
                               -5.01**********   -808.80
                             1373.14   -808.801463768.18

     nonloc. stress (kbar)  -1607.34      0.05     -3.92
                                0.05  -1606.61      2.32
                               -3.92      2.32  -1670.53

     hartree stress (kbar) 760097.42    -17.17   -534.84
                              -17.17 760189.26    316.87
                             -534.84    316.87-684763.44

     exc-cor stress (kbar)  -8421.68      0.43     -2.02
                                0.43  -8420.87      1.14
                               -2.02      1.14  -8432.59

     corecor stress (kbar)    -83.33     -0.12      0.62
                               -0.12    -83.56     -0.35
                                0.62     -0.35    -83.38

     ewald   stress (kbar) 679880.75     32.69   -870.19
                               32.69 680084.69    509.58
                             -870.19    509.58-786043.48

     hubbard stress (kbar)      0.00      0.00      0.00
                                0.00      0.00      0.00
                                0.00      0.00      0.00

     DFT-D   stress (kbar)      0.00      0.00      0.00
                                0.00      0.00      0.00
                                0.00      0.00      0.00

     XDM     stress (kbar)      0.00      0.00      0.00
                                0.00      0.00      0.00
                                0.00      0.00      0.00

     dft-nl  stress (kbar)      0.00      0.00      0.00
                                0.00      0.00      0.00
                                0.00      0.00      0.00

     TS-vdW  stress (kbar)      0.00      0.00      0.00
                                0.00      0.00      0.00
                                0.00      0.00      0.00

     MDB     stress (kbar)      0.00      0.00      0.00
                                0.00      0.00      0.00
                                0.00      0.00      0.00

     3D-RISM stress (kbar)      0.00      0.00      0.00
                                0.00      0.00      0.00
                                0.00      0.00      0.00

     Writing all to output data dir ./tmp/Zn002_4x4x2_primitive_14Avacumn_topsite_tilted_ABN.save/ :
     XML data file, charge density, pseudopotentials, collected wavefunctions

     General routines

     Parallel routines

     PAW routines

   This run was terminated on:   3:30:55  22Mar2025

   JOB DONE.
Note: The following floating-point exceptions are signalling: IEEE_DENORMAL
Note: The following floating-point exceptions are signalling: IEEE_DENORMAL
Note: The following floating-point exceptions are signalling: IEEE_DENORMAL
Note: The following floating-point exceptions are signalling: IEEE_DENORMAL
Note: The following floating-point exceptions are signalling: IEEE_DENORMAL
Note: The following floating-point exceptions are signalling: IEEE_DENORMAL
Note: The following floating-point exceptions are signalling: IEEE_DENORMAL
Note: The following floating-point exceptions are signalling: IEEE_DENORMAL
Note: The following floating-point exceptions are signalling: IEEE_DENORMAL
Note: The following floating-point exceptions are signalling: IEEE_DENORMAL