     Program PWSCF v.7.3.1 starts on 16Mar2025 at 17: 4:40

     Waiting for input...
     Reading input from standard input

     Current dimensions of program PWSCF are:
     Max number of different atomic species (ntypx) = 10
     Max number of k-points (npk) =  40000
     Max angular momentum in pseudopotentials (lmaxx) =  4
     Found identity + ( -0.5000  0.0000  0.0000) symmetry
     This is a supercell, fractional translations are disabled

     R & G space division:  proc/nbgrp/npool/nimage =      30
     Subspace diagonalization in iterative solution of the eigenvalue problem:
     one sub-group per band group will be used

     Using Slab Decomposition

     bravais-lattice index     =            0
     lattice parameter (alat)  =       9.8808  a.u.
     unit-cell volume          =    7588.2966 (a.u.)^3
     number of atoms/cell      =           32
     number of atomic types    =            1
     number of electrons       =       640.00
     number of Kohn-Sham states=          384
     kinetic-energy cutoff     =      50.0000  Ry
     charge density cutoff     =     200.0000  Ry
     scf convergence threshold =      7.3E-07
     mixing beta               =       0.7000
     number of iterations used =            8  plain     mixing
     Exchange-correlation= SLA  PW   PBE  PBE
                           (   1   4   3   4   0   0   0)

     celldm(1)=   9.880848  celldm(2)=   0.000000  celldm(3)=   0.000000
     celldm(4)=   0.000000  celldm(5)=   0.000000  celldm(6)=   0.000000

     crystal axes: (cart. coord. in units of alat)
               a(1) = (   1.000000   0.000000   0.000000 )
               a(2) = (  -1.000000   1.732051   0.000000 )
               a(3) = (   0.000000   0.000000   4.541517 )

     reciprocal axes: (cart. coord. in units 2 pi/alat)
               b(1) = (  1.000000  0.577350 -0.000000 )
               b(2) = (  0.000000  0.577350  0.000000 )
               b(3) = (  0.000000 -0.000000  0.220191 )

     PseudoPot. # 1 for Zn read from file:
     /home/ys/qepseudo/SSSP_1.3.0_PBE_efficiency/Zn_pbe_v1.uspp.F.UPF
     MD5 check sum: df62231357ef9e81f77b2b3087fa5675
     Pseudo is Ultrasoft, Zval = 20.0
     Generated by new atomic code, or converted to UPF format
     Using radial grid of  943 points,  6 beta functions with:
                l(1) =   0
                l(2) =   0
                l(3) =   1
                l(4) =   1
                l(5) =   2
                l(6) =   2
     Q(r) pseudized with  8 coefficients,  rinner =    1.100   1.100   1.100
                                                       1.100   1.100

     atomic species   valence    mass     pseudopotential
     Zn               20.00    65.38000     Zn( 1.00)

     No symmetry found

                                    s                        frac. trans.

      isym =  1     identity

 cryst.   s( 1) = (     1          0          0      )
                  (     0          1          0      )
                  (     0          0          1      )

 cart.    s( 1) = (  1.0000000  0.0000000  0.0000000 )
                  (  0.0000000  1.0000000  0.0000000 )
                  (  0.0000000  0.0000000  1.0000000 )

   Cartesian axes

     site n.     atom                  positions (alat units)
         1        Zn     tau(   1) = (  -0.0000000   0.2886751   0.2329997  )
         2        Zn     tau(   2) = (  -0.0000003   0.2895988   1.1937565  )
         3        Zn     tau(   3) = (  -0.2500000   0.7216878   0.2329997  )
         4        Zn     tau(   4) = (  -0.2500003   0.7227332   1.1938346  )
         5        Zn     tau(   5) = (  -0.5000000   1.1547005   0.2329997  )
         6        Zn     tau(   6) = (  -0.5000000   1.1556774   1.1939143  )
         7        Zn     tau(   7) = (  -0.7500000   1.5877132   0.2329997  )
         8        Zn     tau(   8) = (  -0.7499998   1.5885793   1.1938690  )
         9        Zn     tau(   9) = (   0.5000000   0.2886751   0.2329997  )
        10        Zn     tau(  10) = (   0.5000005   0.2895989   1.1937570  )
        11        Zn     tau(  11) = (   0.2500000   0.7216878   0.2329997  )
        12        Zn     tau(  12) = (   0.2500004   0.7227335   1.1938342  )
        13        Zn     tau(  13) = (  -0.0000000   1.1547005   0.2329997  )
        14        Zn     tau(  14) = (   0.0000002   1.1556777   1.1939137  )
        15        Zn     tau(  15) = (  -0.2500000   1.5877132   0.2329997  )
        16        Zn     tau(  16) = (  -0.2500001   1.5885796   1.1938689  )
        17        Zn     tau(  17) = (   0.2500000   0.1443376   0.6989991  )
        18        Zn     tau(  18) = (   0.2499999   0.1423330   1.6884941  )
        19        Zn     tau(  19) = (   0.0000000   0.5773503   0.6989991  )
        20        Zn     tau(  20) = (   0.0000001   0.5754608   1.6885358  )
        21        Zn     tau(  21) = (  -0.2500000   1.0103630   0.6989991  )
        22        Zn     tau(  22) = (  -0.2499997   1.0084758   1.6879868  )
        23        Zn     tau(  23) = (  -0.5000000   1.4433757   0.6989991  )
        24        Zn     tau(  24) = (  -0.4999999   1.4413741   1.6879473  )
        25        Zn     tau(  25) = (   0.7500000   0.1443376   0.6989991  )
        26        Zn     tau(  26) = (   0.7500002   0.1423329   1.6884940  )
        27        Zn     tau(  27) = (   0.5000000   0.5773503   0.6989991  )
        28        Zn     tau(  28) = (   0.5000001   0.5754607   1.6885366  )
        29        Zn     tau(  29) = (   0.2500000   1.0103630   0.6989991  )
        30        Zn     tau(  30) = (   0.2499999   1.0084757   1.6879867  )
        31        Zn     tau(  31) = (   0.0000000   1.4433757   0.6989991  )
        32        Zn     tau(  32) = (   0.0000001   1.4413739   1.6879472  )

   Crystallographic axes

     site n.     atom                  positions (cryst. coord.)
         1        Zn     tau(   1) = (  0.1666667  0.1666667  0.0513044  )
         2        Zn     tau(   2) = (  0.1671996  0.1671999  0.2628541  )
         3        Zn     tau(   3) = (  0.1666667  0.4166667  0.0513044  )
         4        Zn     tau(   4) = (  0.1672699  0.4172702  0.2628713  )
         5        Zn     tau(   5) = (  0.1666667  0.6666667  0.0513044  )
         6        Zn     tau(   6) = (  0.1672307  0.6672307  0.2628888  )
         7        Zn     tau(   7) = (  0.1666667  0.9166667  0.0513044  )
         8        Zn     tau(   8) = (  0.1671669  0.9171667  0.2628789  )
         9        Zn     tau(   9) = (  0.6666667  0.1666667  0.0513044  )
        10        Zn     tau(  10) = (  0.6672006  0.1672000  0.2628542  )
        11        Zn     tau(  11) = (  0.6666667  0.4166667  0.0513044  )
        12        Zn     tau(  12) = (  0.6672708  0.4172704  0.2628712  )
        13        Zn     tau(  13) = (  0.6666667  0.6666667  0.0513044  )
        14        Zn     tau(  14) = (  0.6672310  0.6672308  0.2628887  )
        15        Zn     tau(  15) = (  0.6666667  0.9166667  0.0513044  )
        16        Zn     tau(  16) = (  0.6671667  0.9171668  0.2628789  )
        17        Zn     tau(  17) = (  0.3333333  0.0833333  0.1539131  )
        18        Zn     tau(  18) = (  0.3321759  0.0821760  0.3717907  )
        19        Zn     tau(  19) = (  0.3333333  0.3333333  0.1539131  )
        20        Zn     tau(  20) = (  0.3322426  0.3322425  0.3717999  )
        21        Zn     tau(  21) = (  0.3333333  0.5833333  0.1539131  )
        22        Zn     tau(  22) = (  0.3322440  0.5822437  0.3716790  )
        23        Zn     tau(  23) = (  0.3333333  0.8333333  0.1539131  )
        24        Zn     tau(  24) = (  0.3321778  0.8321777  0.3716703  )
        25        Zn     tau(  25) = (  0.8333333  0.0833333  0.1539131  )
        26        Zn     tau(  26) = (  0.8321762  0.0821759  0.3717907  )
        27        Zn     tau(  27) = (  0.8333333  0.3333333  0.1539131  )
        28        Zn     tau(  28) = (  0.8322425  0.3322424  0.3718001  )
        29        Zn     tau(  29) = (  0.8333333  0.5833333  0.1539131  )
        30        Zn     tau(  30) = (  0.8322436  0.5822437  0.3716790  )
        31        Zn     tau(  31) = (  0.8333333  0.8333333  0.1539131  )
        32        Zn     tau(  32) = (  0.8321777  0.8321776  0.3716703  )

     number of k points=     5  Marzari-Vanderbilt smearing, width (Ry)=  0.0200
                       cart. coord. in units 2pi/alat
        k(    1) = (   0.0000000   0.0000000   0.0000000), wk =   0.2222222
        k(    2) = (   0.0000000   0.1924501   0.0000000), wk =   0.4444444
        k(    3) = (   0.3333333   0.1924501   0.0000000), wk =   0.4444444
        k(    4) = (   0.3333333   0.3849002   0.0000000), wk =   0.4444444
        k(    5) = (   0.3333333  -0.0000000   0.0000000), wk =   0.4444444

                       cryst. coord.
        k(    1) = (   0.0000000   0.0000000   0.0000000), wk =   0.2222222
        k(    2) = (   0.0000000   0.3333333   0.0000000), wk =   0.4444444
        k(    3) = (   0.3333333   0.0000000   0.0000000), wk =   0.4444444
        k(    4) = (   0.3333333   0.3333333   0.0000000), wk =   0.4444444
        k(    5) = (   0.3333333  -0.3333333   0.0000000), wk =   0.4444444

     Initial potential from superposition of free atoms

     starting charge     639.9955, renormalised to     640.0000

     negative rho (up, down):  4.604E-03 0.000E+00
     Starting wfcs are  416 randomized atomic wfcs
[psid04:66586] Set MCA parameter "orte_base_help_aggregate" to 0 to see all help / error messages

     Self-consistent Calculation

     iteration #  1     ecut=    50.00 Ry     beta= 0.70
     Davidson diagonalization with overlap

     ethr =  1.00E-02,  avg # of iterations =  8.6

     Threshold (ethr) on eigenvalues was too large:
     Diagonalizing with lowered threshold

     Davidson diagonalization with overlap

[...]

     negative rho (up, down):  4.062E-03 0.000E+00

     total energy              =  -14769.10477571 Ry
     estimated scf accuracy    <       1.04999330 Ry

[...]

     c_bands:  1 eigenvalues not converged
     ethr =  4.39E-07,  avg # of iterations = 10.6

[...]

     total energy              =  -14769.59530524 Ry
     estimated scf accuracy    <       0.00000318 Ry

     iteration # 12     ecut=    50.00 Ry     beta= 0.70
     Davidson diagonalization with overlap

     ethr =  4.97E-10,  avg # of iterations =  2.0

     negative rho (up, down):  3.774E-03 0.000E+00

     End of self-consistent calculation

          k = 0.0000 0.0000 0.0000 ( 45257 PWs)   bands (ev):

  -123.1180-123.1162-123.1162-123.1146-123.1146-123.1144-123.1143-123.1142
  -123.0233-123.0213-123.0207-123.0206-123.0197-123.0187-123.0187-123.0178
  -122.9129-122.9111-122.9111-122.9095-122.9094-122.9093-122.9093-122.9091
  -122.8313-122.8296-122.8287-122.8283-122.8283-122.8270-122.8264-122.8264
   -77.2825 -77.2825 -77.2782 -77.2771 -77.2771 -77.2719 -77.2699 -77.2698
   -77.2681 -77.2680 -77.2678 -77.2677 -77.2677 -77.2605 -77.2605 -77.2586
   -77.2586 -77.2573 -77.2530 -77.2530 -77.2527 -77.2527 -77.2482 -77.2427
   -77.1871 -77.1869 -77.1826 -77.1815 -77.1812 -77.1780 -77.1758 -77.1753
[...]
     atom   21 type  1   force =    -0.00000210   -0.00568642    0.07000912
     atom   22 type  1   force =     0.00000005   -0.00915308   -0.08608436
     atom   23 type  1   force =     0.00000030   -0.00516585    0.06992794
     atom   24 type  1   force =     0.00000017   -0.00873941   -0.08613543
     atom   25 type  1   force =     0.00000210   -0.00517489    0.06993680
     atom   26 type  1   force =    -0.00000222   -0.00869903   -0.08553176
     atom   27 type  1   force =    -0.00000015   -0.00569821    0.07002522
     atom   28 type  1   force =     0.00000011   -0.00909075   -0.08543844
     atom   29 type  1   force =     0.00000225   -0.00568680    0.07000907
     atom   30 type  1   force =    -0.00000006   -0.00915242   -0.08608488
     atom   31 type  1   force =    -0.00000019   -0.00516366    0.06993331
     atom   32 type  1   force =    -0.00000026   -0.00874060   -0.08614710
     The ionic contribution  to forces
     atom    1 type  1   force =     0.00000117    0.00090165 -410.76355067
     atom    2 type  1   force =     0.00028480    0.02278854  137.17294700
     atom    3 type  1   force =     0.00000049   -0.00227910 -410.76483983
     atom    4 type  1   force =     0.00020881   -0.13755159  137.15502482
     atom    5 type  1   force =     0.00000045   -0.00090095 -410.76803023
     atom    6 type  1   force =     0.00006857   -0.04886506  137.09026341
     atom    7 type  1   force =     0.00000039    0.00224492 -410.76663294
     atom    8 type  1   force =    -0.00004578    0.10303954  137.12266970
     atom    9 type  1   force =    -0.00000113    0.00090119 -410.76355022
     atom   10 type  1   force =    -0.00029488    0.02270586  137.17321274
     atom   11 type  1   force =    -0.00000043   -0.00228001 -410.76484024
     atom   12 type  1   force =    -0.00020371   -0.13776932  137.15482186
     atom   13 type  1   force =    -0.00000040   -0.00090144 -410.76803084
     atom   14 type  1   force =    -0.00007622   -0.04897788  137.08997831
     atom   15 type  1   force =    -0.00000032    0.00224402 -410.76663418
     atom   16 type  1   force =     0.00005631    0.10283759  137.12263729
     atom   17 type  1   force =     0.00001191    0.01163217 -131.45243852
     atom   18 type  1   force =     0.00005638    0.06458764  405.13126425
     atom   19 type  1   force =     0.00000575   -0.00407843 -131.44794962
     atom   20 type  1   force =     0.00001266   -0.04055364  405.14017648
     atom   21 type  1   force =    -0.00000060   -0.00525153 -131.46965902
     atom   22 type  1   force =    -0.00010319   -0.03994556  405.05031241
     atom   23 type  1   force =    -0.00000131    0.01261829 -131.47210212
     atom   24 type  1   force =     0.00000460    0.06189088  405.04259016
     atom   25 type  1   force =    -0.00001015    0.01161817 -131.45251060
     atom   26 type  1   force =    -0.00005317    0.06457793  405.13129029
     atom   27 type  1   force =    -0.00000587   -0.00410512 -131.44798576
     atom   28 type  1   force =    -0.00001494   -0.04051655  405.14060830
     atom   29 type  1   force =     0.00000172   -0.00524312 -131.46969429
     atom   30 type  1   force =     0.00010421   -0.03994345  405.05026313
     atom   31 type  1   force =     0.00000056    0.01263515 -131.47211290
     atom   32 type  1   force =    -0.00000668    0.06193919  405.04250182
     The local contribution  to forces
     atom    1 type  1   force =    -0.00000074   -0.01093254  410.65925293
     atom    2 type  1   force =    -0.00028739   -0.02722828 -137.08795826
     atom    3 type  1   force =     0.00000025   -0.00707539  410.66067783
     atom    4 type  1   force =    -0.00020974    0.13359474 -137.07030866
     atom    5 type  1   force =    -0.00000064   -0.00881139  410.66403762
     atom    6 type  1   force =    -0.00006968    0.04464078 -137.00567077
     atom    7 type  1   force =    -0.00000043   -0.01261045  410.66250491
     atom    8 type  1   force =     0.00004540   -0.10775389 -137.03783194
     atom    9 type  1   force =     0.00000073   -0.01093239  410.65925142
     atom   10 type  1   force =     0.00029800   -0.02714496 -137.08822289
     atom   11 type  1   force =    -0.00000056   -0.00707460  410.66067876
     atom   12 type  1   force =     0.00020447    0.13381521 -137.07010531
     atom   13 type  1   force =     0.00000047   -0.00881107  410.66403787
     atom   14 type  1   force =     0.00007771    0.04475558 -137.00538498
     atom   15 type  1   force =     0.00000046   -0.01261006  410.66250582
     atom   16 type  1   force =    -0.00005635   -0.10754944 -137.03779986
     atom   17 type  1   force =    -0.00001226   -0.00668105  131.39111173
     atom   18 type  1   force =    -0.00005725   -0.05590081 -405.04566150
     atom   19 type  1   force =    -0.00000608    0.01002697  131.38653308
     atom   20 type  1   force =    -0.00001263    0.04965171 -405.05467964
     atom   21 type  1   force =     0.00000167    0.01119631  131.40827571
     atom   22 type  1   force =     0.00010399    0.04912440 -404.96415825
     atom   23 type  1   force =     0.00000056   -0.00768373  131.41079966
     atom   24 type  1   force =    -0.00000513   -0.05315952 -404.95637097
     atom   25 type  1   force =     0.00001062   -0.00666671  131.39118443
     atom   26 type  1   force =     0.00005403   -0.05589122 -405.04568766
     atom   27 type  1   force =     0.00000614    0.01005293  131.38656798
     atom   28 type  1   force =     0.00001513    0.04961467 -405.05510889
     atom   29 type  1   force =    -0.00000248    0.01118853  131.40831102
     atom   30 type  1   force =    -0.00010486    0.04912197 -404.96410870
     atom   31 type  1   force =     0.00000031   -0.00770059  131.41080970
     atom   32 type  1   force =     0.00000709   -0.05320818 -404.95627785
     The core correction contribution to forces
     atom    1 type  1   force =     0.00000000    0.00000000    0.00000000
     atom    2 type  1   force =     0.00000000    0.00000000    0.00000000
     atom    3 type  1   force =     0.00000000    0.00000000    0.00000000
     atom    4 type  1   force =     0.00000000    0.00000000    0.00000000
     atom    5 type  1   force =     0.00000000    0.00000000    0.00000000
     atom    6 type  1   force =     0.00000000    0.00000000    0.00000000
     atom    7 type  1   force =     0.00000000    0.00000000    0.00000000
     atom    8 type  1   force =     0.00000000    0.00000000    0.00000000
     atom    9 type  1   force =     0.00000000    0.00000000    0.00000000
     atom   10 type  1   force =     0.00000000    0.00000000    0.00000000
     atom   11 type  1   force =     0.00000000    0.00000000    0.00000000
     atom   12 type  1   force =     0.00000000    0.00000000    0.00000000
     atom   13 type  1   force =     0.00000000    0.00000000    0.00000000
     atom   14 type  1   force =     0.00000000    0.00000000    0.00000000
     atom   15 type  1   force =     0.00000000    0.00000000    0.00000000
     atom   16 type  1   force =     0.00000000    0.00000000    0.00000000
     atom   17 type  1   force =     0.00000000    0.00000000    0.00000000
     atom   18 type  1   force =     0.00000000    0.00000000    0.00000000
     atom   19 type  1   force =     0.00000000    0.00000000    0.00000000
     atom   20 type  1   force =     0.00000000    0.00000000    0.00000000
     atom   21 type  1   force =     0.00000000    0.00000000    0.00000000
     atom   22 type  1   force =     0.00000000    0.00000000    0.00000000
     atom   23 type  1   force =     0.00000000    0.00000000    0.00000000
     atom   24 type  1   force =     0.00000000    0.00000000    0.00000000
     atom   25 type  1   force =     0.00000000    0.00000000    0.00000000
     atom   26 type  1   force =     0.00000000    0.00000000    0.00000000
     atom   27 type  1   force =     0.00000000    0.00000000    0.00000000
     atom   28 type  1   force =     0.00000000    0.00000000    0.00000000
     atom   29 type  1   force =     0.00000000    0.00000000    0.00000000
     atom   30 type  1   force =     0.00000000    0.00000000    0.00000000
     atom   31 type  1   force =     0.00000000    0.00000000    0.00000000
     atom   32 type  1   force =     0.00000000    0.00000000    0.00000000
     The Hubbard contrib.    to forces
     atom    1 type  1   force =     0.00000000    0.00000000    0.00000000
     atom    2 type  1   force =     0.00000000    0.00000000    0.00000000
     atom    3 type  1   force =     0.00000000    0.00000000    0.00000000
     atom    4 type  1   force =     0.00000000    0.00000000    0.00000000
     atom    5 type  1   force =     0.00000000    0.00000000    0.00000000
     atom    6 type  1   force =     0.00000000    0.00000000    0.00000000
     atom    7 type  1   force =     0.00000000    0.00000000    0.00000000
     atom    8 type  1   force =     0.00000000    0.00000000    0.00000000
     atom    9 type  1   force =     0.00000000    0.00000000    0.00000000
     atom   10 type  1   force =     0.00000000    0.00000000    0.00000000
     atom   11 type  1   force =     0.00000000    0.00000000    0.00000000
     atom   12 type  1   force =     0.00000000    0.00000000    0.00000000
     atom   13 type  1   force =     0.00000000    0.00000000    0.00000000
     atom   14 type  1   force =     0.00000000    0.00000000    0.00000000
     atom   15 type  1   force =     0.00000000    0.00000000    0.00000000
     atom   16 type  1   force =     0.00000000    0.00000000    0.00000000
     atom   17 type  1   force =     0.00000000    0.00000000    0.00000000
     atom   18 type  1   force =     0.00000000    0.00000000    0.00000000
     atom   19 type  1   force =     0.00000000    0.00000000    0.00000000
     atom   20 type  1   force =     0.00000000    0.00000000    0.00000000
     atom   21 type  1   force =     0.00000000    0.00000000    0.00000000
     atom   22 type  1   force =     0.00000000    0.00000000    0.00000000
     atom   23 type  1   force =     0.00000000    0.00000000    0.00000000
     atom   24 type  1   force =     0.00000000    0.00000000    0.00000000
     atom   25 type  1   force =     0.00000000    0.00000000    0.00000000
     atom   26 type  1   force =     0.00000000    0.00000000    0.00000000
     atom   27 type  1   force =     0.00000000    0.00000000    0.00000000
     atom   28 type  1   force =     0.00000000    0.00000000    0.00000000
     atom   29 type  1   force =     0.00000000    0.00000000    0.00000000
     atom   30 type  1   force =     0.00000000    0.00000000    0.00000000
     atom   31 type  1   force =     0.00000000    0.00000000    0.00000000
     atom   32 type  1   force =     0.00000000    0.00000000    0.00000000
     The SCF correction term to forces
     atom    1 type  1   force =    -0.00000080    0.00014306   -0.00020979
     atom    2 type  1   force =     0.00000106    0.00017332   -0.00012951
     atom    3 type  1   force =    -0.00000016   -0.00053258   -0.00035777
     atom    4 type  1   force =    -0.00000055   -0.00065043   -0.00003271
     atom    5 type  1   force =    -0.00000012   -0.00013641   -0.00063778
     atom    6 type  1   force =     0.00000138   -0.00018340    0.00012910
     atom    7 type  1   force =     0.00000040    0.00052191   -0.00048765
     atom    8 type  1   force =     0.00000137    0.00067341    0.00004777
     atom    9 type  1   force =     0.00000075    0.00014254   -0.00020845
     atom   10 type  1   force =    -0.00000125    0.00017253   -0.00013094
     atom   11 type  1   force =     0.00000058   -0.00053232   -0.00035850
     atom   12 type  1   force =     0.00000090   -0.00065213   -0.00003290
     atom   13 type  1   force =     0.00000012   -0.00013686   -0.00063678
     atom   14 type  1   force =    -0.00000107   -0.00018466    0.00012882
     atom   15 type  1   force =    -0.00000059    0.00052325   -0.00048733
     atom   16 type  1   force =    -0.00000149    0.00067081    0.00004853
     atom   17 type  1   force =     0.00000198    0.00052731   -0.00037220
     atom   18 type  1   force =    -0.00000018    0.00024721    0.00016341
     atom   19 type  1   force =    -0.00000009   -0.00052484   -0.00037001
     atom   20 type  1   force =     0.00000005   -0.00023911    0.00016266
     atom   21 type  1   force =    -0.00000102   -0.00054325   -0.00043948
     atom   22 type  1   force =    -0.00000011   -0.00025307    0.00043458
     atom   23 type  1   force =     0.00000076    0.00054210   -0.00044234
     atom   24 type  1   force =     0.00000105    0.00024138    0.00043580
     atom   25 type  1   force =    -0.00000258    0.00052726   -0.00037258
     atom   26 type  1   force =    -0.00000017    0.00024709    0.00016429
     atom   27 type  1   force =    -0.00000040   -0.00052515   -0.00037061
     atom   28 type  1   force =    -0.00000047   -0.00023961    0.00016192
     atom   29 type  1   force =    -0.00000001   -0.00054355   -0.00043923
     atom   30 type  1   force =    -0.00000021   -0.00025329    0.00043487
     atom   31 type  1   force =    -0.00000133    0.00054169   -0.00044354
     atom   32 type  1   force =    -0.00000053    0.00024090    0.00043658

     Total force =     0.034377     Total SCF correction =     0.003121

     Computing stress (Cartesian axis) and pressure

          total   stress  (Ry/bohr**3)                   (kbar)     P=       -2.86
  -0.00009645  -0.00000000  -0.00000000          -14.19       -0.00       -0.00
  -0.00000000   0.00001787  -0.00000103           -0.00        2.63       -0.15
  -0.00000000  -0.00000103   0.00002022           -0.00       -0.15        2.97

     kinetic stress (kbar)  16599.64      0.00     -0.00
                                0.00  16618.71     -0.40
                               -0.00     -0.40  16705.66

     local   stress (kbar)**********      0.00      0.00
                                0.00**********     -8.65
                                0.00     -8.651524156.03

     nonloc. stress (kbar)  -1736.50     -0.00      0.00
                               -0.00  -1729.87     -0.20
                                0.00     -0.20  -1807.05

     hartree stress (kbar) 788820.07     -0.00     -0.00
                               -0.00 788848.63      3.21
                               -0.00      3.21-714683.80

     exc-cor stress (kbar)  -8376.09      0.00     -0.00
                                0.00  -8375.92     -0.01
                               -0.00     -0.01  -8387.92

     corecor stress (kbar)      0.00      0.00      0.00
                                0.00      0.00      0.00
                                0.00      0.00      0.00

     ewald   stress (kbar) 709358.22     -0.00     -0.00
                               -0.00 709380.83      5.90
                               -0.00      5.90-815979.94

     hubbard stress (kbar)      0.00      0.00      0.00
                                0.00      0.00      0.00
                                0.00      0.00      0.00

     DFT-D   stress (kbar)      0.00      0.00      0.00
                                0.00      0.00      0.00
                                0.00      0.00      0.00

     XDM     stress (kbar)      0.00      0.00      0.00
                                0.00      0.00      0.00
                                0.00      0.00      0.00

     dft-nl  stress (kbar)      0.00      0.00      0.00
                                0.00      0.00      0.00
                                0.00      0.00      0.00

     TS-vdW  stress (kbar)      0.00      0.00      0.00
                                0.00      0.00      0.00
                                0.00      0.00      0.00

     MDB     stress (kbar)      0.00      0.00      0.00
                                0.00      0.00      0.00
                                0.00      0.00      0.00

     3D-RISM stress (kbar)      0.00      0.00      0.00
                                0.00      0.00      0.00
                                0.00      0.00      0.00

     Writing all to output data dir ./tmp/Zn002_2x2x4_scf.save/ :
     XML data file, charge density, pseudopotentials, collected wavefunctions

     General routines

     Parallel routines

   This run was terminated on:  17:21: 6  16Mar2025

   JOB DONE.
Note: The following floating-point exceptions are signalling: IEEE_DENORMAL
Note: The following floating-point exceptions are signalling: IEEE_DENORMAL
Note: The following floating-point exceptions are signalling: IEEE_DENORMAL
Note: The following floating-point exceptions are signalling: IEEE_DENORMAL
Note: The following floating-point exceptions are signalling: IEEE_DENORMAL