     Program PWSCF v.7.3.1 starts on 15Mar2025 at 21:46:43

     Waiting for input...
     Reading input from standard input
Warning: card &CELL ignored
Warning: card   CELL_DOFREE = 'ALL' ignored
Warning: card / ignored

     Current dimensions of program PWSCF are:
     Max number of different atomic species (ntypx) = 10
     Max number of k-points (npk) =  40000
     Max angular momentum in pseudopotentials (lmaxx) =  4
     Found identity + ( -0.0000 -0.5000  0.0000) symmetry
     This is a supercell, fractional translations are disabled

     R & G space division:  proc/nbgrp/npool/nimage =      30
     Subspace diagonalization in iterative solution of the eigenvalue problem:
     one sub-group per band group will be used

     Using Slab Decomposition

     bravais-lattice index     =            0
     lattice parameter (alat)  =      20.9009  a.u.
     unit-cell volume          =    8423.3755 (a.u.)^3
     number of atoms/cell      =           32
     number of atomic types    =            1
     number of electrons       =       640.00
     number of Kohn-Sham states=          384
     kinetic-energy cutoff     =      50.0000  Ry
     charge density cutoff     =     200.0000  Ry
     scf convergence threshold =      7.3E-07
     mixing beta               =       0.7000
     number of iterations used =            8  plain     mixing
     Exchange-correlation= SLA  PW   PBE  PBE
                           (   1   4   3   4   0   0   0)

     celldm(1)=  20.900943  celldm(2)=   0.000000  celldm(3)=   0.000000
     celldm(4)=   0.000000  celldm(5)=   0.000000  celldm(6)=   0.000000

     crystal axes: (cart. coord. in units of alat)
               a(1) = (   1.000000   0.000000   0.000000 )
               a(2) = (  -0.111745   0.459350   0.000000 )
               a(3) = (  -4.200249  -1.021781   2.008375 )

     reciprocal axes: (cart. coord. in units 2 pi/alat)
               b(1) = (  1.000000  0.243267  2.215131 )
               b(2) = ( -0.000000  2.176989  1.107566 )
               b(3) = (  0.000000 -0.000000  0.497915 )

     PseudoPot. # 1 for Zn read from file:
     /home/ys/qepseudo/SSSP_1.3.0_PBE_efficiency/Zn_pbe_v1.uspp.F.UPF
     MD5 check sum: df62231357ef9e81f77b2b3087fa5675
     Pseudo is Ultrasoft, Zval = 20.0
     Generated by new atomic code, or converted to UPF format
     Using radial grid of  943 points,  6 beta functions with:
                l(1) =   0
                l(2) =   0
                l(3) =   1
                l(4) =   1
                l(5) =   2
                l(6) =   2
     Q(r) pseudized with  8 coefficients,  rinner =    1.100   1.100   1.100
                                                       1.100   1.100

     atomic species   valence    mass     pseudopotential
     Zn               20.00    65.38000     Zn( 1.00)

     No symmetry found

                                    s                        frac. trans.

      isym =  1     identity

 cryst.   s( 1) = (     1          0          0      )
                  (     0          1          0      )
                  (     0          0          1      )

 cart.    s( 1) = (  1.0000000  0.0000000  0.0000000 )
                  (  0.0000000  1.0000000  0.0000000 )
                  (  0.0000000  0.0000000  1.0000000 )

   Cartesian axes

     site n.     atom                  positions (alat units)
         1        Zn     tau(   1) = (  -0.0970639   0.0980210   0.1082939  )
         2        Zn     tau(   2) = (  -0.4853192   0.0035714   0.2939406  )
         3        Zn     tau(   3) = (  -0.8769917  -0.0917049   0.5109583  )
         4        Zn     tau(   4) = (  -1.2393182  -0.1798545   0.7015996  )
         5        Zn     tau(   5) = (  -0.1529362   0.3276960   0.1082939  )
         6        Zn     tau(   6) = (  -0.5411916   0.2332464   0.2939406  )
         7        Zn     tau(   7) = (  -0.9328639   0.1379701   0.5109582  )
         8        Zn     tau(   8) = (  -1.2951904   0.0498206   0.7015996  )
         9        Zn     tau(   9) = (   0.4029361   0.0980210   0.1082939  )
        10        Zn     tau(  10) = (   0.0146808   0.0035714   0.2939406  )
        11        Zn     tau(  11) = (  -0.3769696  -0.0917006   0.5109946  )
        12        Zn     tau(  12) = (  -0.7392709  -0.1798442   0.7014624  )
        13        Zn     tau(  13) = (   0.3470638   0.3276960   0.1082939  )
        14        Zn     tau(  14) = (  -0.0411916   0.2332464   0.2939406  )
        15        Zn     tau(  15) = (  -0.4328420   0.1379744   0.5109946  )
        16        Zn     tau(  16) = (  -0.7951433   0.0498308   0.7014623  )
        17        Zn     tau(  17) = (   0.1529362   0.0372043   0.0773528  )
        18        Zn     tau(  18) = (  -0.2353192  -0.0572454   0.2629995  )
        19        Zn     tau(  19) = (  -0.6308270  -0.1534546   0.4612477  )
        20        Zn     tau(  20) = (  -1.0069581  -0.2449548   0.6661801  )
        21        Zn     tau(  21) = (   0.0970639   0.2668793   0.0773528  )
        22        Zn     tau(  22) = (  -0.2911915   0.1724296   0.2629995  )
        23        Zn     tau(  23) = (  -0.6866993   0.0762204   0.4612476  )
        24        Zn     tau(  24) = (  -1.0628305  -0.0152798   0.6661801  )
        25        Zn     tau(  25) = (   0.6529362   0.0372043   0.0773528  )
        26        Zn     tau(  26) = (   0.2646808  -0.0572454   0.2629995  )
        27        Zn     tau(  27) = (  -0.1308842  -0.1534678   0.4614336  )
        28        Zn     tau(  28) = (  -0.5069835  -0.2449613   0.6658686  )
        29        Zn     tau(  29) = (   0.5970639   0.2668793   0.0773528  )
        30        Zn     tau(  30) = (   0.2088085   0.1724296   0.2629995  )
        31        Zn     tau(  31) = (  -0.1867564   0.0762073   0.4614335  )
        32        Zn     tau(  32) = (  -0.5628557  -0.0152862   0.6658686  )

   Crystallographic axes

     site n.     atom                  positions (cryst. coord.)
         1        Zn     tau(   1) = (  0.1666667  0.3333333  0.0539212  )
         2        Zn     tau(   2) = (  0.1666667  0.3333333  0.1463574  )
         3        Zn     tau(   3) = (  0.2325393  0.3662792  0.2544138  )
         4        Zn     tau(   4) = (  0.2710645  0.3855263  0.3493370  )
         5        Zn     tau(   5) = (  0.1666667  0.8333333  0.0539212  )
         6        Zn     tau(   6) = (  0.1666667  0.8333333  0.1463574  )
         7        Zn     tau(   7) = (  0.2325392  0.8662792  0.2544138  )
         8        Zn     tau(   8) = (  0.2710644  0.8855263  0.3493369  )
         9        Zn     tau(   9) = (  0.6666667  0.3333333  0.0539212  )
        10        Zn     tau(  10) = (  0.6666667  0.3333333  0.1463574  )
        11        Zn     tau(  11) = (  0.7326429  0.3663288  0.2544319  )
        12        Zn     tau(  12) = (  0.7708103  0.3853967  0.3492686  )
        13        Zn     tau(  13) = (  0.6666667  0.8333333  0.0539212  )
        14        Zn     tau(  14) = (  0.6666667  0.8333333  0.1463574  )
        15        Zn     tau(  15) = (  0.7326428  0.8663287  0.2544319  )
        16        Zn     tau(  16) = (  0.7708101  0.8853967  0.3492686  )
        17        Zn     tau(  17) = (  0.3333333  0.1666667  0.0385151  )
        18        Zn     tau(  18) = (  0.3333333  0.1666667  0.1309514  )
        19        Zn     tau(  19) = (  0.3535668  0.1767931  0.2296621  )
        20        Zn     tau(  20) = (  0.4091289  0.2045741  0.3317010  )
        21        Zn     tau(  21) = (  0.3333333  0.6666667  0.0385151  )
        22        Zn     tau(  22) = (  0.3333333  0.6666667  0.1309514  )
        23        Zn     tau(  23) = (  0.3535667  0.6767931  0.2296621  )
        24        Zn     tau(  24) = (  0.4091288  0.7045741  0.3317010  )
        25        Zn     tau(  25) = (  0.8333333  0.1666667  0.0385151  )
        26        Zn     tau(  26) = (  0.8333333  0.1666667  0.1309514  )
        27        Zn     tau(  27) = (  0.8539182  0.1769702  0.2297547  )
        28        Zn     tau(  28) = (  0.9084121  0.2042151  0.3315460  )
        29        Zn     tau(  29) = (  0.8333333  0.6666667  0.0385151  )
        30        Zn     tau(  30) = (  0.8333333  0.6666667  0.1309514  )
        31        Zn     tau(  31) = (  0.8539181  0.6769702  0.2297547  )
        32        Zn     tau(  32) = (  0.9084121  0.7042152  0.3315460  )

     number of k points=     5  Marzari-Vanderbilt smearing, width (Ry)=  0.0200
                       cart. coord. in units 2pi/alat
        k(    1) = (   0.0000000   0.0000000   0.0000000), wk =   0.2222222
        k(    2) = (   0.0000000   0.7256631   0.3691885), wk =   0.4444444
        k(    3) = (   0.3333333   0.0810890   0.7383771), wk =   0.4444444
        k(    4) = (   0.3333333   0.8067520   1.1075656), wk =   0.4444444
        k(    5) = (   0.3333333  -0.6445741   0.3691886), wk =   0.4444444

                       cryst. coord.
        k(    1) = (   0.0000000   0.0000000   0.0000000), wk =   0.2222222
        k(    2) = (   0.0000000   0.3333333  -0.0000000), wk =   0.4444444
        k(    3) = (   0.3333333   0.0000000   0.0000000), wk =   0.4444444
        k(    4) = (   0.3333333   0.3333333   0.0000000), wk =   0.4444444
        k(    5) = (   0.3333333  -0.3333333   0.0000000), wk =   0.4444444

     Initial potential from superposition of free atoms

     starting charge     639.9955, renormalised to     640.0000

     negative rho (up, down):  5.113E-03 0.000E+00
     Starting wfcs are  416 randomized atomic wfcs
[psid04:267091] Set MCA parameter "orte_base_help_aggregate" to 0 to see all help / error messages

     Self-consistent Calculation

     iteration #  1     ecut=    50.00 Ry     beta= 0.70
     Davidson diagonalization with overlap

     ethr =  1.00E-02,  avg # of iterations =  7.6

     Threshold (ethr) on eigenvalues was too large:
     Diagonalizing with lowered threshold

     Davidson diagonalization with overlap

[...]

     negative rho (up, down):  4.302E-03 0.000E+00

     total energy              =  -14768.92265163 Ry
     estimated scf accuracy    <       0.89683342 Ry

[...]

     total energy              =  -14769.34706143 Ry
     estimated scf accuracy    <       0.00000101 Ry

     iteration # 15     ecut=    50.00 Ry     beta= 0.70
     Davidson diagonalization with overlap

     ethr =  1.58E-10,  avg # of iterations =  1.2

     negative rho (up, down):  4.085E-03 0.000E+00

     End of self-consistent calculation

          k = 0.0000 0.0000 0.0000 ( 50243 PWs)   bands (ev):

  -124.0408-124.0403-124.0390-124.0386-123.9769-123.9761-123.9751-123.9744
  -123.8621-123.8610-123.8604-123.8592-123.8382-123.8381-123.8364-123.8364
  -123.8200-123.8182-123.8181-123.8163-123.6682-123.6664-123.6660-123.6642
  -123.6563-123.6560-123.6545-123.6543-123.5098-123.5095-123.5080-123.5077
   -78.2102 -78.2097 -78.1901 -78.1895 -78.1879 -78.1874 -78.1863 -78.1858
   -78.1856 -78.1851 -78.1841 -78.1837 -78.1468 -78.1460 -78.1311 -78.1304
   -78.1290 -78.1283 -78.1223 -78.1215 -78.1215 -78.1208 -78.1194 -78.1186
   -78.0291 -78.0279 -78.0148 -78.0136 -78.0128 -78.0117 -78.0107 -78.0095
   -78.0088 -78.0076 -78.0048 -78.0036 -78.0002 -78.0002 -77.9988 -77.9987
[...]
     atom   23 type  1   force =     0.04077632    0.00990143   -0.04363310
     atom   24 type  1   force =     0.14314807    0.03481317    0.07965958
     atom   25 type  1   force =     0.04390436    0.01068358   -0.05959405
     atom   26 type  1   force =     0.06329980    0.01540921   -0.06046251
     atom   27 type  1   force =     0.04180690    0.01014711   -0.04438886
     atom   28 type  1   force =     0.14236849    0.03462048    0.08011023
     atom   29 type  1   force =     0.04390429    0.01068159   -0.05959389
     atom   30 type  1   force =     0.06330106    0.01540880   -0.06046193
     atom   31 type  1   force =     0.04180609    0.01014549   -0.04438702
     atom   32 type  1   force =     0.14236676    0.03462025    0.08011085
     The ionic contribution  to forces
     atom    1 type  1   force =    -5.40152328   -1.31401464 -347.89447397
     atom    2 type  1   force =     1.54553074    0.37611716  -94.70427777
     atom    3 type  1   force =    -2.98883026   -0.72742657  149.63066119
     atom    4 type  1   force =   -10.52302945   -2.55953571  372.32284576
     atom    5 type  1   force =    -5.40152349   -1.31401386 -347.89446969
     atom    6 type  1   force =     1.54552696    0.37613133  -94.70427822
     atom    7 type  1   force =    -2.98883550   -0.72744715  149.63057240
     atom    8 type  1   force =   -10.52303191   -2.55953658  372.32280494
     atom    9 type  1   force =    -5.38770076   -1.31065142 -347.92911020
     atom   10 type  1   force =     1.45353000    0.35375957  -94.65815338
     atom   11 type  1   force =    -2.88647151   -0.70238058  149.64785975
     atom   12 type  1   force =   -10.49616384   -2.55288798  372.27371671
     atom   13 type  1   force =    -5.38770105   -1.31065107 -347.92910850
     atom   14 type  1   force =     1.45352390    0.35379902  -94.65816013
     atom   15 type  1   force =    -2.88645393   -0.70238201  149.64783879
     atom   16 type  1   force =   -10.49615641   -2.55292451  372.27365204
     atom   17 type  1   force =     1.72044959    0.41852771 -376.46551230
     atom   18 type  1   force =     0.17094493    0.04176988 -138.37773617
     atom   19 type  1   force =     3.57763096    0.87015921   95.01521540
     atom   20 type  1   force =    11.87672149    2.88900101  340.50261193
     atom   21 type  1   force =     1.72044961    0.41852931 -376.46551201
     atom   22 type  1   force =     0.17093954    0.04178172 -138.37774300
     atom   23 type  1   force =     3.57762845    0.87013766   95.01517233
     atom   24 type  1   force =    11.87673908    2.88899246  340.50260792
     atom   25 type  1   force =     1.74853753    0.42536087 -376.45768580
     atom   26 type  1   force =     0.09298267    0.02277389 -138.43810347
     atom   27 type  1   force =     3.67192026    0.89300405   95.17004836
     atom   28 type  1   force =    11.82548196    2.87645823  340.36228897
     atom   29 type  1   force =     1.74853790    0.42536162 -376.45768536
     atom   30 type  1   force =     0.09298702    0.02278564 -138.43811440
     atom   31 type  1   force =     3.67190503    0.89296845   95.16996605
     atom   32 type  1   force =    11.82545376    2.87643327  340.36226183
     The local contribution  to forces
     atom    1 type  1   force =     5.52114535    1.34311281  347.95602875
     atom    2 type  1   force =    -1.55902914   -0.37941069   94.62112489
     atom    3 type  1   force =     3.04074097    0.74007270 -149.61347741
     atom    4 type  1   force =    10.64916363    2.59019144 -372.37829379
     atom    5 type  1   force =     5.52114612    1.34311103  347.95602386
     atom    6 type  1   force =    -1.55902548   -0.37942493   94.62112542
     atom    7 type  1   force =     3.04074638    0.74009396 -149.61338885
     atom    8 type  1   force =    10.64916644    2.59019260 -372.37825260
     atom    9 type  1   force =     5.50746406    1.33978385  347.99073850
     atom   10 type  1   force =    -1.46787464   -0.35726099   94.57406369
     atom   11 type  1   force =     2.93857081    0.71506396 -149.62997436
     atom   12 type  1   force =    10.62364937    2.58386470 -372.32929260
     atom   13 type  1   force =     5.50746466    1.33978296  347.99073593
     atom   14 type  1   force =    -1.46786855   -0.35730020   94.57406996
     atom   15 type  1   force =     2.93855299    0.71506674 -149.62995363
     atom   16 type  1   force =    10.62364195    2.58390221 -372.32922838
     atom   17 type  1   force =    -1.77799089   -0.43252841  376.50667345
     atom   18 type  1   force =    -0.23444103   -0.05722599  138.44737006
     atom   19 type  1   force =    -3.61810662   -0.87998969  -94.97188881
     atom   20 type  1   force =   -12.02068269   -2.92401537 -340.58313843
     atom   21 type  1   force =    -1.77799096   -0.43252982  376.50667186
     atom   22 type  1   force =    -0.23443604   -0.05723812  138.44737642
     atom   23 type  1   force =    -3.61810419   -0.87996722  -94.97184639
     atom   24 type  1   force =   -12.02070048   -2.92400491 -340.58313379
     atom   25 type  1   force =    -1.80590058   -0.43931754  376.49909521
     atom   26 type  1   force =    -0.15594839   -0.03810020  138.50746433
     atom   27 type  1   force =    -3.71441857   -0.90332046  -95.12603267
     atom   28 type  1   force =   -11.96756146   -2.91101127 -340.44320716
     atom   29 type  1   force =    -1.80590097   -0.43931817  376.49909355
     atom   30 type  1   force =    -0.15595314   -0.03811216  138.50747502
     atom   31 type  1   force =    -3.71440305   -0.90328433  -95.12595098
     atom   32 type  1   force =   -11.96753245   -2.91098529 -340.44317943
     The core correction contribution to forces
     atom    1 type  1   force =     0.00000000    0.00000000    0.00000000
     atom    2 type  1   force =     0.00000000    0.00000000    0.00000000
     atom    3 type  1   force =     0.00000000    0.00000000    0.00000000
     atom    4 type  1   force =     0.00000000    0.00000000    0.00000000
     atom    5 type  1   force =     0.00000000    0.00000000    0.00000000
     atom    6 type  1   force =     0.00000000    0.00000000    0.00000000
     atom    7 type  1   force =     0.00000000    0.00000000    0.00000000
     atom    8 type  1   force =     0.00000000    0.00000000    0.00000000
     atom    9 type  1   force =     0.00000000    0.00000000    0.00000000
     atom   10 type  1   force =     0.00000000    0.00000000    0.00000000
     atom   11 type  1   force =     0.00000000    0.00000000    0.00000000
     atom   12 type  1   force =     0.00000000    0.00000000    0.00000000
     atom   13 type  1   force =     0.00000000    0.00000000    0.00000000
     atom   14 type  1   force =     0.00000000    0.00000000    0.00000000
     atom   15 type  1   force =     0.00000000    0.00000000    0.00000000
     atom   16 type  1   force =     0.00000000    0.00000000    0.00000000
     atom   17 type  1   force =     0.00000000    0.00000000    0.00000000
     atom   18 type  1   force =     0.00000000    0.00000000    0.00000000
     atom   19 type  1   force =     0.00000000    0.00000000    0.00000000
     atom   20 type  1   force =     0.00000000    0.00000000    0.00000000
     atom   21 type  1   force =     0.00000000    0.00000000    0.00000000
     atom   22 type  1   force =     0.00000000    0.00000000    0.00000000
     atom   23 type  1   force =     0.00000000    0.00000000    0.00000000
     atom   24 type  1   force =     0.00000000    0.00000000    0.00000000
     atom   25 type  1   force =     0.00000000    0.00000000    0.00000000
     atom   26 type  1   force =     0.00000000    0.00000000    0.00000000
     atom   27 type  1   force =     0.00000000    0.00000000    0.00000000
     atom   28 type  1   force =     0.00000000    0.00000000    0.00000000
     atom   29 type  1   force =     0.00000000    0.00000000    0.00000000
     atom   30 type  1   force =     0.00000000    0.00000000    0.00000000
     atom   31 type  1   force =     0.00000000    0.00000000    0.00000000
     atom   32 type  1   force =     0.00000000    0.00000000    0.00000000
     The Hubbard contrib.    to forces
     atom    1 type  1   force =     0.00000000    0.00000000    0.00000000
     atom    2 type  1   force =     0.00000000    0.00000000    0.00000000
     atom    3 type  1   force =     0.00000000    0.00000000    0.00000000
     atom    4 type  1   force =     0.00000000    0.00000000    0.00000000
     atom    5 type  1   force =     0.00000000    0.00000000    0.00000000
     atom    6 type  1   force =     0.00000000    0.00000000    0.00000000
     atom    7 type  1   force =     0.00000000    0.00000000    0.00000000
     atom    8 type  1   force =     0.00000000    0.00000000    0.00000000
     atom    9 type  1   force =     0.00000000    0.00000000    0.00000000
     atom   10 type  1   force =     0.00000000    0.00000000    0.00000000
     atom   11 type  1   force =     0.00000000    0.00000000    0.00000000
     atom   12 type  1   force =     0.00000000    0.00000000    0.00000000
     atom   13 type  1   force =     0.00000000    0.00000000    0.00000000
     atom   14 type  1   force =     0.00000000    0.00000000    0.00000000
     atom   15 type  1   force =     0.00000000    0.00000000    0.00000000
     atom   16 type  1   force =     0.00000000    0.00000000    0.00000000
     atom   17 type  1   force =     0.00000000    0.00000000    0.00000000
     atom   18 type  1   force =     0.00000000    0.00000000    0.00000000
     atom   19 type  1   force =     0.00000000    0.00000000    0.00000000
     atom   20 type  1   force =     0.00000000    0.00000000    0.00000000
     atom   21 type  1   force =     0.00000000    0.00000000    0.00000000
     atom   22 type  1   force =     0.00000000    0.00000000    0.00000000
     atom   23 type  1   force =     0.00000000    0.00000000    0.00000000
     atom   24 type  1   force =     0.00000000    0.00000000    0.00000000
     atom   25 type  1   force =     0.00000000    0.00000000    0.00000000
     atom   26 type  1   force =     0.00000000    0.00000000    0.00000000
     atom   27 type  1   force =     0.00000000    0.00000000    0.00000000
     atom   28 type  1   force =     0.00000000    0.00000000    0.00000000
     atom   29 type  1   force =     0.00000000    0.00000000    0.00000000
     atom   30 type  1   force =     0.00000000    0.00000000    0.00000000
     atom   31 type  1   force =     0.00000000    0.00000000    0.00000000
     atom   32 type  1   force =     0.00000000    0.00000000    0.00000000
     The SCF correction term to forces
     atom    1 type  1   force =     0.00009121    0.00002197    0.00106427
     atom    2 type  1   force =    -0.00037749   -0.00009191    0.00051801
     atom    3 type  1   force =     0.00011153    0.00002666    0.00030813
     atom    4 type  1   force =     0.00078235    0.00019005   -0.00033569
     atom    5 type  1   force =     0.00009089    0.00002235    0.00106444
     atom    6 type  1   force =    -0.00037732   -0.00009167    0.00051756
     atom    7 type  1   force =     0.00011143    0.00002749    0.00030765
     atom    8 type  1   force =     0.00078205    0.00019043   -0.00033620
     atom    9 type  1   force =    -0.00003866   -0.00000934    0.00090141
     atom   10 type  1   force =     0.00039428    0.00009591    0.00144796
     atom   11 type  1   force =    -0.00013842   -0.00003323   -0.00029357
     atom   12 type  1   force =    -0.00063727   -0.00015474   -0.00075881
     atom   13 type  1   force =    -0.00003845   -0.00000954    0.00090173
     atom   14 type  1   force =     0.00039429    0.00009594    0.00144832
     atom   15 type  1   force =    -0.00013792   -0.00003406   -0.00029373
     atom   16 type  1   force =    -0.00063734   -0.00015537   -0.00075858
     atom   17 type  1   force =     0.00009412    0.00002262    0.00103697
     atom   18 type  1   force =     0.00020396    0.00004909    0.00072666
     atom   19 type  1   force =    -0.00098585   -0.00023955    0.00030841
     atom   20 type  1   force =     0.00104534    0.00025510   -0.00055247
     atom   21 type  1   force =     0.00009406    0.00002312    0.00103723
     atom   22 type  1   force =     0.00020365    0.00005012    0.00072706
     atom   23 type  1   force =    -0.00098563   -0.00024003    0.00030836
     atom   24 type  1   force =     0.00104575    0.00025363   -0.00055222
     atom   25 type  1   force =    -0.00011665   -0.00002865    0.00066990
     atom   26 type  1   force =    -0.00025077   -0.00006141    0.00138973
     atom   27 type  1   force =     0.00103431    0.00025112    0.00032461
     atom   28 type  1   force =    -0.00115581   -0.00028098   -0.00043834
     atom   29 type  1   force =    -0.00011661   -0.00002815    0.00067012
     atom   30 type  1   force =    -0.00025099   -0.00006071    0.00138982
     atom   31 type  1   force =     0.00103403    0.00025199    0.00032449
     atom   32 type  1   force =    -0.00115614   -0.00028151   -0.00043887

     Total force =     0.088888     Total SCF correction =     0.005687

     Computing stress (Cartesian axis) and pressure

          total   stress  (Ry/bohr**3)                   (kbar)     P=      -10.66
  -0.00014302  -0.00000696   0.00002220          -21.04       -1.02        3.27
  -0.00000696  -0.00011614   0.00000540           -1.02      -17.08        0.79
   0.00002220   0.00000540   0.00004178            3.27        0.79        6.15

     kinetic stress (kbar)  14987.38      9.38     -4.41
                                9.38  14951.09     -1.07
                               -4.41     -1.07  15022.99

     local   stress (kbar)**********   3539.13  -1789.13
                             3539.13**********   -435.16
                            -1789.13   -435.161184848.18

     nonloc. stress (kbar)  -1615.17     -6.66      4.24
                               -6.66  -1589.43      1.03
                                4.24      1.03  -1620.64

     hartree stress (kbar) 619011.23  -1524.59    745.22
                            -1524.59 624907.24    181.25
                              745.22    181.25-550795.13

     exc-cor stress (kbar)  -7546.80     -0.94      0.57
                               -0.94  -7543.17      0.14
                                0.57      0.14  -7550.11

     corecor stress (kbar)      0.00      0.00      0.00
                                0.00      0.00      0.00
                                0.00      0.00      0.00

     ewald   stress (kbar) 545737.26  -2017.35   1046.78
                            -2017.35 553538.90    254.61
                             1046.78    254.61-639899.14

     hubbard stress (kbar)      0.00      0.00      0.00
                                0.00      0.00      0.00
                                0.00      0.00      0.00

     DFT-D   stress (kbar)      0.00      0.00      0.00
                                0.00      0.00      0.00
                                0.00      0.00      0.00

     XDM     stress (kbar)      0.00      0.00      0.00
                                0.00      0.00      0.00
                                0.00      0.00      0.00

     dft-nl  stress (kbar)      0.00      0.00      0.00
                                0.00      0.00      0.00
                                0.00      0.00      0.00

     TS-vdW  stress (kbar)      0.00      0.00      0.00
                                0.00      0.00      0.00
                                0.00      0.00      0.00

     MDB     stress (kbar)      0.00      0.00      0.00
                                0.00      0.00      0.00
                                0.00      0.00      0.00

     3D-RISM stress (kbar)      0.00      0.00      0.00
                                0.00      0.00      0.00
                                0.00      0.00      0.00

     Writing all to output data dir ./tmp/Zn002_2x2x4_scf.save/ :
     XML data file, charge density, pseudopotentials, collected wavefunctions

     General routines

     Parallel routines

   This run was terminated on:  22:10:15  15Mar2025

   JOB DONE.
Note: The following floating-point exceptions are signalling: IEEE_DENORMAL
Note: The following floating-point exceptions are signalling: IEEE_DENORMAL
Note: The following floating-point exceptions are signalling: IEEE_DENORMAL
Note: The following floating-point exceptions are signalling: IEEE_DENORMAL
Note: The following floating-point exceptions are signalling: IEEE_DENORMAL
Note: The following floating-point exceptions are signalling: IEEE_DENORMAL
Note: The following floating-point exceptions are signalling: IEEE_DENORMAL