     Program PWSCF v.7.3.1 starts on 16Mar2025 at  0:36: 5

     Waiting for input...
     Reading input from standard input

     Current dimensions of program PWSCF are:
     Max number of different atomic species (ntypx) = 10
     Max number of k-points (npk) =  40000
     Max angular momentum in pseudopotentials (lmaxx) =  4
     Found identity + (  0.0000 -0.5000  0.0000) symmetry
     This is a supercell, fractional translations are disabled

     R & G space division:  proc/nbgrp/npool/nimage =      30
     Subspace diagonalization in iterative solution of the eigenvalue problem:
     one sub-group per band group will be used

     Using Slab Decomposition

     bravais-lattice index     =            0
     lattice parameter (alat)  =      18.4179  a.u.
     unit-cell volume          =    7929.1084 (a.u.)^3
     number of atoms/cell      =           32
     number of atomic types    =            1
     number of electrons       =       640.00
     number of Kohn-Sham states=          384
     kinetic-energy cutoff     =      50.0000  Ry
     charge density cutoff     =     200.0000  Ry
     scf convergence threshold =      7.3E-07
     mixing beta               =       0.7000
     number of iterations used =            8  plain     mixing
     Exchange-correlation= SLA  PW   PBE  PBE
                           (   1   4   3   4   0   0   0)

     celldm(1)=  18.417879  celldm(2)=   0.000000  celldm(3)=   0.000000
     celldm(4)=   0.000000  celldm(5)=   0.000000  celldm(6)=   0.000000

     crystal axes: (cart. coord. in units of alat)
               a(1) = (   1.000000   0.000000   0.000000 )
               a(2) = (   0.000000   0.536481   0.000000 )
               a(3) = (   0.000000  -1.365810   2.365652 )

     reciprocal axes: (cart. coord. in units 2 pi/alat)
               b(1) = (  1.000000  0.000000 -0.000000 )
               b(2) = ( -0.000000  1.863998  1.076180 )
               b(3) = (  0.000000  0.000000  0.422716 )

     PseudoPot. # 1 for Zn read from file:
     /home/ys/qepseudo/SSSP_1.3.0_PBE_efficiency/Zn_pbe_v1.uspp.F.UPF
     MD5 check sum: df62231357ef9e81f77b2b3087fa5675
     Pseudo is Ultrasoft, Zval = 20.0
     Generated by new atomic code, or converted to UPF format
     Using radial grid of  943 points,  6 beta functions with:
                l(1) =   0
                l(2) =   0
                l(3) =   1
                l(4) =   1
                l(5) =   2
                l(6) =   2
     Q(r) pseudized with  8 coefficients,  rinner =    1.100   1.100   1.100
                                                       1.100   1.100

     atomic species   valence    mass     pseudopotential
     Zn               20.00    65.38000     Zn( 1.00)

     No symmetry found

                                    s                        frac. trans.

      isym =  1     identity

 cryst.   s( 1) = (     1          0          0      )
                  (     0          1          0      )
                  (     0          0          1      )

 cart.    s( 1) = (  1.0000000  0.0000000  0.0000000 )
                  (  0.0000000  1.0000000 -0.0000000 )
                  (  0.0000000  0.0000000  1.0000000 )

   Cartesian axes

     site n.     atom                  positions (alat units)
         1        Zn     tau(   1) = (   0.1250000   0.1341203   0.0774344  )
         2        Zn     tau(   2) = (   0.1250000   0.0000000   0.3097376  )
         3        Zn     tau(   3) = (   0.1252274  -0.1341230   0.5810209  )
         4        Zn     tau(   4) = (   0.1252343  -0.2682335   0.8536748  )
         5        Zn     tau(   5) = (   0.1250000   0.4023610   0.0774344  )
         6        Zn     tau(   6) = (   0.1250000   0.2682407   0.3097376  )
         7        Zn     tau(   7) = (   0.1252273   0.1341177   0.5810211  )
         8        Zn     tau(   8) = (   0.1252343   0.0000071   0.8536747  )
         9        Zn     tau(   9) = (   0.6250000   0.1341203   0.0774344  )
        10        Zn     tau(  10) = (   0.6250000   0.0000000   0.3097376  )
        11        Zn     tau(  11) = (   0.6247544  -0.1341232   0.5808336  )
        12        Zn     tau(  12) = (   0.6247716  -0.2682336   0.8536785  )
        13        Zn     tau(  13) = (   0.6250000   0.4023610   0.0774344  )
        14        Zn     tau(  14) = (   0.6250000   0.2682407   0.3097376  )
        15        Zn     tau(  15) = (   0.6247545   0.1341174   0.5808334  )
        16        Zn     tau(  16) = (   0.6247717   0.0000071   0.8536785  )
        17        Zn     tau(  17) = (   0.3750000  -0.0000000   0.1548688  )
        18        Zn     tau(  18) = (   0.3750000  -0.1341203   0.3871721  )
        19        Zn     tau(  19) = (   0.3749045  -0.2682370   0.6231456  )
        20        Zn     tau(  20) = (   0.3748936  -0.4023530   0.8690866  )
        21        Zn     tau(  21) = (   0.3750000   0.2682407   0.1548688  )
        22        Zn     tau(  22) = (   0.3750000   0.1341203   0.3871721  )
        23        Zn     tau(  23) = (   0.3749046   0.0000037   0.6231455  )
        24        Zn     tau(  24) = (   0.3748935  -0.1341123   0.8690865  )
        25        Zn     tau(  25) = (   0.8750000  -0.0000000   0.1548688  )
        26        Zn     tau(  26) = (   0.8750000  -0.1341203   0.3871721  )
        27        Zn     tau(  27) = (   0.8750648  -0.2682369   0.6230150  )
        28        Zn     tau(  28) = (   0.8751138  -0.4023527   0.8691801  )
        29        Zn     tau(  29) = (   0.8750000   0.2682407   0.1548688  )
        30        Zn     tau(  30) = (   0.8750000   0.1341203   0.3871721  )
        31        Zn     tau(  31) = (   0.8750650   0.0000037   0.6230149  )
        32        Zn     tau(  32) = (   0.8751139  -0.1341120   0.8691802  )

   Crystallographic axes

     site n.     atom                  positions (cryst. coord.)
         1        Zn     tau(   1) = (  0.1250000  0.3333333  0.0327328  )
         2        Zn     tau(   2) = (  0.1250000  0.3333333  0.1309312  )
         3        Zn     tau(   3) = (  0.1252274  0.3752778  0.2456071  )
         4        Zn     tau(   4) = (  0.1252343  0.4187207  0.3608623  )
         5        Zn     tau(   5) = (  0.1250000  0.8333333  0.0327328  )
         6        Zn     tau(   6) = (  0.1250000  0.8333333  0.1309312  )
         7        Zn     tau(   7) = (  0.1252273  0.8752780  0.2456071  )
         8        Zn     tau(   8) = (  0.1252343  0.9187206  0.3608623  )
         9        Zn     tau(   9) = (  0.6250000  0.3333333  0.0327328  )
        10        Zn     tau(  10) = (  0.6250000  0.3333333  0.1309312  )
        11        Zn     tau(  11) = (  0.6247544  0.3750759  0.2455279  )
        12        Zn     tau(  12) = (  0.6247716  0.4187246  0.3608639  )
        13        Zn     tau(  13) = (  0.6250000  0.8333333  0.0327328  )
        14        Zn     tau(  14) = (  0.6250000  0.8333333  0.1309312  )
        15        Zn     tau(  15) = (  0.6247545  0.8750757  0.2455278  )
        16        Zn     tau(  16) = (  0.6247717  0.9187247  0.3608639  )
        17        Zn     tau(  17) = (  0.3750000  0.1666667  0.0654656  )
        18        Zn     tau(  18) = (  0.3750000  0.1666667  0.1636640  )
        19        Zn     tau(  19) = (  0.3749045  0.1706234  0.2634138  )
        20        Zn     tau(  20) = (  0.3748936  0.1853081  0.3673772  )
        21        Zn     tau(  21) = (  0.3750000  0.6666667  0.0654656  )
        22        Zn     tau(  22) = (  0.3750000  0.6666667  0.1636640  )
        23        Zn     tau(  23) = (  0.3749046  0.6706233  0.2634138  )
        24        Zn     tau(  24) = (  0.3748935  0.6853081  0.3673771  )
        25        Zn     tau(  25) = (  0.8750000  0.1666667  0.0654656  )
        26        Zn     tau(  26) = (  0.8750000  0.1666667  0.1636640  )
        27        Zn     tau(  27) = (  0.8750648  0.1704831  0.2633587  )
        28        Zn     tau(  28) = (  0.8751138  0.1854093  0.3674167  )
        29        Zn     tau(  29) = (  0.8750000  0.6666667  0.0654656  )
        30        Zn     tau(  30) = (  0.8750000  0.6666667  0.1636640  )
        31        Zn     tau(  31) = (  0.8750650  0.6704828  0.2633586  )
        32        Zn     tau(  32) = (  0.8751139  0.6854095  0.3674167  )

     number of k points=     5  Marzari-Vanderbilt smearing, width (Ry)=  0.0200
                       cart. coord. in units 2pi/alat
        k(    1) = (   0.0000000   0.0000000   0.0000000), wk =   0.2222222
        k(    2) = (   0.0000000   0.6213326   0.3587265), wk =   0.4444444
        k(    3) = (   0.3333333   0.0000000   0.0000000), wk =   0.4444444
        k(    4) = (   0.3333333   0.6213326   0.3587265), wk =   0.4444444
        k(    5) = (   0.3333333  -0.6213326  -0.3587265), wk =   0.4444444

                       cryst. coord.
        k(    1) = (   0.0000000   0.0000000   0.0000000), wk =   0.2222222
        k(    2) = (   0.0000000   0.3333333   0.0000000), wk =   0.4444444
        k(    3) = (   0.3333333   0.0000000   0.0000000), wk =   0.4444444
        k(    4) = (   0.3333333   0.3333333   0.0000000), wk =   0.4444444
        k(    5) = (   0.3333333  -0.3333333   0.0000000), wk =   0.4444444

     Initial potential from superposition of free atoms

     starting charge     639.9955, renormalised to     640.0000

     negative rho (up, down):  4.934E-03 0.000E+00
     Starting wfcs are  416 randomized atomic wfcs
[psid05:235656] Set MCA parameter "orte_base_help_aggregate" to 0 to see all help / error messages

     Self-consistent Calculation

     iteration #  1     ecut=    50.00 Ry     beta= 0.70
     Davidson diagonalization with overlap

     ethr =  1.00E-02,  avg # of iterations =  7.8

     Threshold (ethr) on eigenvalues was too large:
     Diagonalizing with lowered threshold

     Davidson diagonalization with overlap

[...]

     negative rho (up, down):  4.339E-03 0.000E+00

     total energy              =  -14769.01860581 Ry
     estimated scf accuracy    <       0.91416070 Ry

[...]

     total energy              =  -14769.45303853 Ry
     estimated scf accuracy    <       0.00000174 Ry

     iteration # 12     ecut=    50.00 Ry     beta= 0.70
     Davidson diagonalization with overlap

     ethr =  2.71E-10,  avg # of iterations =  2.0

     negative rho (up, down):  4.121E-03 0.000E+00

     End of self-consistent calculation

          k = 0.0000 0.0000 0.0000 ( 47357 PWs)   bands (ev):

  -123.4956-123.4942-123.4938-123.4924-123.4406-123.4388-123.4358-123.4340
  -123.4304-123.4299-123.4287-123.4281-123.2559-123.2553-123.2541-123.2536
  -123.2475-123.2460-123.2458-123.2442-123.2337-123.2333-123.2319-123.2315
  -123.1297-123.1279-123.1252-123.1234-123.0171-123.0154-123.0151-123.0134
   -77.6615 -77.6601 -77.6506 -77.6491 -77.6480 -77.6465 -77.6390 -77.6375
   -77.6368 -77.6367 -77.6353 -77.6353 -77.6073 -77.6025 -77.5949 -77.5943
   -77.5906 -77.5893 -77.5860 -77.5852 -77.5846 -77.5837 -77.5834 -77.5832
   -77.5831 -77.5815 -77.5810 -77.5809 -77.5804 -77.5802 -77.5791 -77.5785
   -77.5785 -77.5783 -77.5705 -77.5699 -77.4185 -77.4180 -77.4141 -77.4135
   -77.4122 -77.4116 -77.4104 -77.4099 -77.4091 -77.4083 -77.4079 -77.4065
[...]
     atom   22 type  1   force =    -0.00040040    0.00001074   -0.00394806
     atom   23 type  1   force =    -0.00042100   -0.00001689   -0.00320638
     atom   24 type  1   force =    -0.00003152   -0.00001975    0.08345601
     atom   25 type  1   force =     0.00008151    0.00000091    0.01881312
     atom   26 type  1   force =     0.00043017    0.00000976   -0.00567583
     atom   27 type  1   force =     0.00044122   -0.00001958   -0.00359586
     atom   28 type  1   force =     0.00003221   -0.00002360    0.08406344
     atom   29 type  1   force =     0.00008320   -0.00000219    0.01881259
     atom   30 type  1   force =     0.00043166    0.00001087   -0.00567580
     atom   31 type  1   force =     0.00044258   -0.00001652   -0.00359545
     atom   32 type  1   force =     0.00003128   -0.00002191    0.08406030
     The ionic contribution  to forces
     atom    1 type  1   force =    -0.01393235    0.00000026 -416.27095719
     atom    2 type  1   force =    -0.06576138   -0.00003368 -160.82027926
     atom    3 type  1   force =    -0.31110267    0.00047402  106.49197395
     atom    4 type  1   force =    -0.32338098   -0.00009235  369.57888004
     atom    5 type  1   force =    -0.01393253   -0.00000011 -416.27095871
     atom    6 type  1   force =    -0.06576521   -0.00006418 -160.82027827
     atom    7 type  1   force =    -0.31104806    0.00047424  106.49212947
     atom    8 type  1   force =    -0.32337032   -0.00006727  369.57878932
     atom    9 type  1   force =     0.01393716    0.00000028 -416.27269765
     atom   10 type  1   force =     0.06595914   -0.00006510 -160.83033438
     atom   11 type  1   force =     0.30548171    0.00049109  106.49762481
     atom   12 type  1   force =     0.32128453   -0.00007347  369.50054223
     atom   13 type  1   force =     0.01393730   -0.00000011 -416.27269646
     atom   14 type  1   force =     0.06595871   -0.00003993 -160.83033276
     atom   15 type  1   force =     0.30545111    0.00048151  106.49749221
     atom   16 type  1   force =     0.32125641   -0.00008916  369.50055589
     atom   17 type  1   force =    -0.00113620   -0.00000024 -352.13407453
     atom   18 type  1   force =     0.00651934    0.00016714  -87.21504916
     atom   19 type  1   force =     0.12213751   -0.00038279  152.38619931
     atom   20 type  1   force =     0.14726324   -0.00016469  387.97345994
     atom   21 type  1   force =    -0.00113602   -0.00000131 -352.13407375
     atom   22 type  1   force =     0.00649455    0.00018373  -87.21503891
     atom   23 type  1   force =     0.12211922   -0.00033624  152.38615175
     atom   24 type  1   force =     0.14728639   -0.00014943  387.97338757
     atom   25 type  1   force =     0.00112958   -0.00000094 -352.08985648
     atom   26 type  1   force =    -0.00588400    0.00015736  -87.06365641
     atom   27 type  1   force =    -0.11770056   -0.00034112  152.44049713
     atom   28 type  1   force =    -0.14479157   -0.00017106  387.82782422
     atom   29 type  1   force =     0.00112973   -0.00000061 -352.08985457
     atom   30 type  1   force =    -0.00586584    0.00019748  -87.06365959
     atom   31 type  1   force =    -0.11772561   -0.00036400  152.44038278
     atom   32 type  1   force =    -0.14481236   -0.00018929  387.82790747
     The local contribution  to forces
     atom    1 type  1   force =     0.01479580   -0.00000116  416.42118761
     atom    2 type  1   force =     0.06682920    0.00003437  160.78359888
     atom    3 type  1   force =     0.31144872   -0.00050714 -106.43490086
     atom    4 type  1   force =     0.32363466    0.00010467 -369.50526765
     atom    5 type  1   force =     0.01479580    0.00000152  416.42118771
     atom    6 type  1   force =     0.06683287    0.00006601  160.78359796
     atom    7 type  1   force =     0.31139362   -0.00050625 -106.43505600
     atom    8 type  1   force =     0.32362405    0.00008016 -369.50517669
     atom    9 type  1   force =    -0.01480216    0.00000005  416.42338397
     atom   10 type  1   force =    -0.06701941    0.00006560  160.79521154
     atom   11 type  1   force =    -0.30568930   -0.00052477 -106.44022384
     atom   12 type  1   force =    -0.32157049    0.00008463 -369.42814224
     atom   13 type  1   force =    -0.01480288   -0.00000008  416.42338205
     atom   14 type  1   force =    -0.06701922    0.00004282  160.79520884
     atom   15 type  1   force =    -0.30565869   -0.00051475 -106.44009121
     atom   16 type  1   force =    -0.32154182    0.00010297 -369.42815626
     atom   17 type  1   force =     0.00129490   -0.00000231  352.08499939
     atom   18 type  1   force =    -0.00561415   -0.00017416   87.22494765
     atom   19 type  1   force =    -0.12077750    0.00040013 -152.38303286
     atom   20 type  1   force =    -0.14647081    0.00018336 -388.05682119
     atom   21 type  1   force =     0.00129539   -0.00000042  352.08499873
     atom   22 type  1   force =    -0.00558986   -0.00018944   87.22493783
     atom   23 type  1   force =    -0.12075935    0.00035199 -152.38298597
     atom   24 type  1   force =    -0.14649578    0.00016606 -388.05674674
     atom   25 type  1   force =    -0.00128243   -0.00000082  352.04059393
     atom   26 type  1   force =     0.00493506   -0.00016435   87.07612868
     atom   27 type  1   force =     0.11632232    0.00035838 -152.43588171
     atom   28 type  1   force =     0.14400907    0.00019140 -387.91213401
     atom   29 type  1   force =    -0.00128344   -0.00000166  352.04059244
     atom   30 type  1   force =     0.00491737   -0.00020323   87.07613137
     atom   31 type  1   force =     0.11634689    0.00037957 -152.43576825
     atom   32 type  1   force =     0.14403100    0.00020792 -387.91221659
     The core correction contribution to forces
     atom    1 type  1   force =     0.00000000    0.00000000    0.00000000
     atom    2 type  1   force =     0.00000000    0.00000000    0.00000000
     atom    3 type  1   force =     0.00000000    0.00000000    0.00000000
     atom    4 type  1   force =     0.00000000    0.00000000    0.00000000
     atom    5 type  1   force =     0.00000000    0.00000000    0.00000000
     atom    6 type  1   force =     0.00000000    0.00000000    0.00000000
     atom    7 type  1   force =     0.00000000    0.00000000    0.00000000
     atom    8 type  1   force =     0.00000000    0.00000000    0.00000000
     atom    9 type  1   force =     0.00000000    0.00000000    0.00000000
     atom   10 type  1   force =     0.00000000    0.00000000    0.00000000
     atom   11 type  1   force =     0.00000000    0.00000000    0.00000000
     atom   12 type  1   force =     0.00000000    0.00000000    0.00000000
     atom   13 type  1   force =     0.00000000    0.00000000    0.00000000
     atom   14 type  1   force =     0.00000000    0.00000000    0.00000000
     atom   15 type  1   force =     0.00000000    0.00000000    0.00000000
     atom   16 type  1   force =     0.00000000    0.00000000    0.00000000
     atom   17 type  1   force =     0.00000000    0.00000000    0.00000000
     atom   18 type  1   force =     0.00000000    0.00000000    0.00000000
     atom   19 type  1   force =     0.00000000    0.00000000    0.00000000
     atom   20 type  1   force =     0.00000000    0.00000000    0.00000000
     atom   21 type  1   force =     0.00000000    0.00000000    0.00000000
     atom   22 type  1   force =     0.00000000    0.00000000    0.00000000
     atom   23 type  1   force =     0.00000000    0.00000000    0.00000000
     atom   24 type  1   force =     0.00000000    0.00000000    0.00000000
     atom   25 type  1   force =     0.00000000    0.00000000    0.00000000
     atom   26 type  1   force =     0.00000000    0.00000000    0.00000000
     atom   27 type  1   force =     0.00000000    0.00000000    0.00000000
     atom   28 type  1   force =     0.00000000    0.00000000    0.00000000
     atom   29 type  1   force =     0.00000000    0.00000000    0.00000000
     atom   30 type  1   force =     0.00000000    0.00000000    0.00000000
     atom   31 type  1   force =     0.00000000    0.00000000    0.00000000
     atom   32 type  1   force =     0.00000000    0.00000000    0.00000000
     The Hubbard contrib.    to forces
     atom    1 type  1   force =     0.00000000    0.00000000    0.00000000
     atom    2 type  1   force =     0.00000000    0.00000000    0.00000000
     atom    3 type  1   force =     0.00000000    0.00000000    0.00000000
     atom    4 type  1   force =     0.00000000    0.00000000    0.00000000
     atom    5 type  1   force =     0.00000000    0.00000000    0.00000000
     atom    6 type  1   force =     0.00000000    0.00000000    0.00000000
     atom    7 type  1   force =     0.00000000    0.00000000    0.00000000
     atom    8 type  1   force =     0.00000000    0.00000000    0.00000000
     atom    9 type  1   force =     0.00000000    0.00000000    0.00000000
     atom   10 type  1   force =     0.00000000    0.00000000    0.00000000
     atom   11 type  1   force =     0.00000000    0.00000000    0.00000000
     atom   12 type  1   force =     0.00000000    0.00000000    0.00000000
     atom   13 type  1   force =     0.00000000    0.00000000    0.00000000
     atom   14 type  1   force =     0.00000000    0.00000000    0.00000000
     atom   15 type  1   force =     0.00000000    0.00000000    0.00000000
     atom   16 type  1   force =     0.00000000    0.00000000    0.00000000
     atom   17 type  1   force =     0.00000000    0.00000000    0.00000000
     atom   18 type  1   force =     0.00000000    0.00000000    0.00000000
     atom   19 type  1   force =     0.00000000    0.00000000    0.00000000
     atom   20 type  1   force =     0.00000000    0.00000000    0.00000000
     atom   21 type  1   force =     0.00000000    0.00000000    0.00000000
     atom   22 type  1   force =     0.00000000    0.00000000    0.00000000
     atom   23 type  1   force =     0.00000000    0.00000000    0.00000000
     atom   24 type  1   force =     0.00000000    0.00000000    0.00000000
     atom   25 type  1   force =     0.00000000    0.00000000    0.00000000
     atom   26 type  1   force =     0.00000000    0.00000000    0.00000000
     atom   27 type  1   force =     0.00000000    0.00000000    0.00000000
     atom   28 type  1   force =     0.00000000    0.00000000    0.00000000
     atom   29 type  1   force =     0.00000000    0.00000000    0.00000000
     atom   30 type  1   force =     0.00000000    0.00000000    0.00000000
     atom   31 type  1   force =     0.00000000    0.00000000    0.00000000
     atom   32 type  1   force =     0.00000000    0.00000000    0.00000000
     The SCF correction term to forces
     atom    1 type  1   force =    -0.00146901    0.00000119    0.00040338
     atom    2 type  1   force =    -0.00139176    0.00000090    0.00028439
     atom    3 type  1   force =    -0.00015265   -0.00000009   -0.00020371
     atom    4 type  1   force =     0.00064747    0.00000039   -0.00089515
     atom    5 type  1   force =    -0.00146959   -0.00000184    0.00040407
     atom    6 type  1   force =    -0.00139147    0.00000002    0.00028408
     atom    7 type  1   force =    -0.00015175   -0.00000127   -0.00020337
     atom    8 type  1   force =     0.00064738    0.00000041   -0.00089583
     atom    9 type  1   force =     0.00150065   -0.00000052   -0.00028131
     atom   10 type  1   force =     0.00138619    0.00000154   -0.00108940
     atom   11 type  1   force =     0.00003184   -0.00000012   -0.00066290
     atom   12 type  1   force =    -0.00067186    0.00000150    0.00014010
     atom   13 type  1   force =     0.00150069    0.00000076   -0.00028339
     atom   14 type  1   force =     0.00138603   -0.00000147   -0.00108733
     atom   15 type  1   force =     0.00003256   -0.00000091   -0.00066413
     atom   16 type  1   force =    -0.00067138   -0.00000047    0.00014030
     atom   17 type  1   force =    -0.00012977   -0.00000054   -0.00030872
     atom   18 type  1   force =    -0.00098462    0.00000084   -0.00002914
     atom   19 type  1   force =    -0.00162373   -0.00000133    0.00029510
     atom   20 type  1   force =    -0.00122758   -0.00000140   -0.00031820
     atom   21 type  1   force =    -0.00013107   -0.00000010   -0.00030926
     atom   22 type  1   force =    -0.00098310   -0.00000176   -0.00003104
     atom   23 type  1   force =    -0.00162324    0.00000038    0.00029578
     atom   24 type  1   force =    -0.00122551    0.00000195   -0.00031976
     atom   25 type  1   force =     0.00012069   -0.00000175    0.00013301
     atom   26 type  1   force =     0.00100816    0.00000047   -0.00175365
     atom   27 type  1   force =     0.00164279   -0.00000050   -0.00125468
     atom   28 type  1   force =     0.00120820   -0.00000079   -0.00025754
     atom   29 type  1   force =     0.00012156    0.00000066    0.00013187
     atom   30 type  1   force =     0.00100613   -0.00000192   -0.00175358
     atom   31 type  1   force =     0.00164345   -0.00000021   -0.00125488
     atom   32 type  1   force =     0.00120766    0.00000151   -0.00025729

     Total force =     0.090421     Total SCF correction =     0.007390

     Computing stress (Cartesian axis) and pressure

          total   stress  (Ry/bohr**3)                   (kbar)     P=      -10.65
  -0.00010055  -0.00000000   0.00000000          -14.79       -0.00        0.00
  -0.00000000  -0.00015436  -0.00000002           -0.00      -22.71       -0.00
   0.00000000  -0.00000002   0.00003776            0.00       -0.00        5.55

     kinetic stress (kbar)  15937.26      0.00     -0.00
                                0.00  15873.49      0.00
                               -0.00      0.00  15954.81

     local   stress (kbar)**********      0.00     -0.10
                                0.00**********      0.25
                               -0.10      0.251322301.05

     nonloc. stress (kbar)  -1708.77     -0.00      0.00
                               -0.00  -1679.89     -0.00
                                0.00     -0.00  -1723.66

     hartree stress (kbar) 688530.49     -0.00      0.04
                               -0.00 695759.07     -0.10
                                0.04     -0.10-617034.28

     exc-cor stress (kbar)  -8017.79      0.00      0.00
                                0.00  -8013.48     -0.00
                                0.00     -0.00  -8021.43

     corecor stress (kbar)      0.00      0.00      0.00
                                0.00      0.00      0.00
                                0.00      0.00      0.00

     ewald   stress (kbar) 610157.56     -0.00      0.06
                               -0.00 619800.69     -0.14
                                0.06     -0.14-711470.94

     hubbard stress (kbar)      0.00      0.00      0.00
                                0.00      0.00      0.00
                                0.00      0.00      0.00

     DFT-D   stress (kbar)      0.00      0.00      0.00
                                0.00      0.00      0.00
                                0.00      0.00      0.00

     XDM     stress (kbar)      0.00      0.00      0.00
                                0.00      0.00      0.00
                                0.00      0.00      0.00

     dft-nl  stress (kbar)      0.00      0.00      0.00
                                0.00      0.00      0.00
                                0.00      0.00      0.00

     TS-vdW  stress (kbar)      0.00      0.00      0.00
                                0.00      0.00      0.00
                                0.00      0.00      0.00

     MDB     stress (kbar)      0.00      0.00      0.00
                                0.00      0.00      0.00
                                0.00      0.00      0.00

     3D-RISM stress (kbar)      0.00      0.00      0.00
                                0.00      0.00      0.00
                                0.00      0.00      0.00

     Writing all to output data dir ./tmp/Zn100_2x2x4_scf.save/ :
     XML data file, charge density, pseudopotentials, collected wavefunctions

     General routines

     Parallel routines

   This run was terminated on:   0:52:57  16Mar2025

   JOB DONE.
Note: The following floating-point exceptions are signalling: IEEE_DENORMAL
Note: The following floating-point exceptions are signalling: IEEE_DENORMAL
Note: The following floating-point exceptions are signalling: IEEE_DENORMAL
Note: The following floating-point exceptions are signalling: IEEE_DENORMAL
Note: The following floating-point exceptions are signalling: IEEE_DENORMAL
Note: The following floating-point exceptions are signalling: IEEE_DENORMAL