     Program PWSCF v.7.3.1 starts on 16Mar2025 at 13:45:16

     Waiting for input...
     Reading input from standard input
Warning: card &CELL ignored
Warning: card   CELL_DOFREE = 'ALL' ignored
Warning: card / ignored

     Current dimensions of program PWSCF are:
     Max number of different atomic species (ntypx) = 10
     Max number of k-points (npk) =  40000
     Max angular momentum in pseudopotentials (lmaxx) =  4
     Found identity + (  0.0000  0.2500  0.0000) symmetry
     This is a supercell, fractional translations are disabled

     R & G space division:  proc/nbgrp/npool/nimage =      30
     Subspace diagonalization in iterative solution of the eigenvalue problem:
     one sub-group per band group will be used

     Using Slab Decomposition

     bravais-lattice index     =            0
     lattice parameter (alat)  =       9.8808  a.u.
     unit-cell volume          =    7588.2966 (a.u.)^3
     number of atoms/cell      =           32
     number of atomic types    =            1
     number of electrons       =       640.00
     number of Kohn-Sham states=          384
     kinetic-energy cutoff     =      30.0000  Ry
     charge density cutoff     =     120.0000  Ry
     scf convergence threshold =      7.3E-07
     mixing beta               =       0.7000
     number of iterations used =            8  plain     mixing
     energy convergence thresh.=      1.0E-05
     force convergence thresh. =      5.0E-04
     Exchange-correlation= SLA  PW   PBE  PBE
                           (   1   4   3   4   0   0   0)
     nstep                     =          100

     celldm(1)=   9.880848  celldm(2)=   0.000000  celldm(3)=   0.000000
     celldm(4)=   0.000000  celldm(5)=   0.000000  celldm(6)=   0.000000

     crystal axes: (cart. coord. in units of alat)
               a(1) = (   1.000000   0.000000   0.000000 )
               a(2) = (  -1.000000   1.732051   0.000000 )
               a(3) = (   0.000000   0.000000   4.541517 )

     reciprocal axes: (cart. coord. in units 2 pi/alat)
               b(1) = (  1.000000  0.577350 -0.000000 )
               b(2) = (  0.000000  0.577350  0.000000 )
               b(3) = (  0.000000 -0.000000  0.220191 )

     PseudoPot. # 1 for Zn read from file:
     /home/ys/qepseudo/SSSP_1.3.0_PBE_efficiency/Zn_pbe_v1.uspp.F.UPF
     MD5 check sum: df62231357ef9e81f77b2b3087fa5675
     Pseudo is Ultrasoft, Zval = 20.0
     Generated by new atomic code, or converted to UPF format
     Using radial grid of  943 points,  6 beta functions with:
                l(1) =   0
                l(2) =   0
                l(3) =   1
                l(4) =   1
                l(5) =   2
                l(6) =   2
     Q(r) pseudized with  8 coefficients,  rinner =    1.100   1.100   1.100
                                                       1.100   1.100

     atomic species   valence    mass     pseudopotential
     Zn               20.00    65.38000     Zn( 1.00)

     No symmetry found

                                    s                        frac. trans.

      isym =  1     identity

 cryst.   s( 1) = (     1          0          0      )
                  (     0          1          0      )
                  (     0          0          1      )

 cart.    s( 1) = (  1.0000000  0.0000000  0.0000000 )
                  (  0.0000000  1.0000000  0.0000000 )
                  (  0.0000000  0.0000000  1.0000000 )

   Cartesian axes

     site n.     atom                  positions (alat units)
         1        Zn     tau(   1) = (  -0.0000000   0.2886751   0.2329997  )
         2        Zn     tau(   2) = (  -0.0000000   0.2886751   1.1649986  )
         3        Zn     tau(   3) = (  -0.2500000   0.7216878   0.2329997  )
         4        Zn     tau(   4) = (  -0.2500000   0.7216878   1.1649986  )
         5        Zn     tau(   5) = (  -0.5000000   1.1547005   0.2329997  )
         6        Zn     tau(   6) = (  -0.5000000   1.1547005   1.1649986  )
         7        Zn     tau(   7) = (  -0.7500000   1.5877132   0.2329997  )
         8        Zn     tau(   8) = (  -0.7500000   1.5877132   1.1649986  )
         9        Zn     tau(   9) = (   0.5000000   0.2886751   0.2329997  )
        10        Zn     tau(  10) = (   0.5000000   0.2886751   1.1649986  )
        11        Zn     tau(  11) = (   0.2500000   0.7216878   0.2329997  )
        12        Zn     tau(  12) = (   0.2500000   0.7216878   1.1649986  )
        13        Zn     tau(  13) = (  -0.0000000   1.1547005   0.2329997  )
        14        Zn     tau(  14) = (  -0.0000000   1.1547005   1.1649986  )
        15        Zn     tau(  15) = (  -0.2500000   1.5877132   0.2329997  )
        16        Zn     tau(  16) = (  -0.2500000   1.5877132   1.1649986  )
        17        Zn     tau(  17) = (   0.2500000   0.1443376   0.6989991  )
        18        Zn     tau(  18) = (   0.2500000   0.1443376   1.6309980  )
        19        Zn     tau(  19) = (   0.0000000   0.5773503   0.6989991  )
        20        Zn     tau(  20) = (   0.0000000   0.5773503   1.6309980  )
        21        Zn     tau(  21) = (  -0.2500000   1.0103630   0.6989991  )
        22        Zn     tau(  22) = (  -0.2500000   1.0103630   1.6309980  )
        23        Zn     tau(  23) = (  -0.5000000   1.4433757   0.6989991  )
        24        Zn     tau(  24) = (  -0.5000000   1.4433757   1.6309980  )
        25        Zn     tau(  25) = (   0.7500000   0.1443376   0.6989991  )
        26        Zn     tau(  26) = (   0.7500000   0.1443376   1.6309980  )
        27        Zn     tau(  27) = (   0.5000000   0.5773503   0.6989991  )
        28        Zn     tau(  28) = (   0.5000000   0.5773503   1.6309980  )
        29        Zn     tau(  29) = (   0.2500000   1.0103630   0.6989991  )
        30        Zn     tau(  30) = (   0.2500000   1.0103630   1.6309980  )
        31        Zn     tau(  31) = (   0.0000000   1.4433757   0.6989991  )
        32        Zn     tau(  32) = (   0.0000000   1.4433757   1.6309980  )

   Crystallographic axes

     site n.     atom                  positions (cryst. coord.)
         1        Zn     tau(   1) = (  0.1666667  0.1666667  0.0513044  )
         2        Zn     tau(   2) = (  0.1666667  0.1666667  0.2565219  )
         3        Zn     tau(   3) = (  0.1666667  0.4166667  0.0513044  )
         4        Zn     tau(   4) = (  0.1666667  0.4166667  0.2565219  )
         5        Zn     tau(   5) = (  0.1666667  0.6666667  0.0513044  )
         6        Zn     tau(   6) = (  0.1666667  0.6666667  0.2565219  )
         7        Zn     tau(   7) = (  0.1666667  0.9166667  0.0513044  )
         8        Zn     tau(   8) = (  0.1666667  0.9166667  0.2565219  )
         9        Zn     tau(   9) = (  0.6666667  0.1666667  0.0513044  )
        10        Zn     tau(  10) = (  0.6666667  0.1666667  0.2565219  )
        11        Zn     tau(  11) = (  0.6666667  0.4166667  0.0513044  )
        12        Zn     tau(  12) = (  0.6666667  0.4166667  0.2565219  )
        13        Zn     tau(  13) = (  0.6666667  0.6666667  0.0513044  )
        14        Zn     tau(  14) = (  0.6666667  0.6666667  0.2565219  )
        15        Zn     tau(  15) = (  0.6666667  0.9166667  0.0513044  )
        16        Zn     tau(  16) = (  0.6666667  0.9166667  0.2565219  )
        17        Zn     tau(  17) = (  0.3333333  0.0833333  0.1539131  )
        18        Zn     tau(  18) = (  0.3333333  0.0833333  0.3591306  )
        19        Zn     tau(  19) = (  0.3333333  0.3333333  0.1539131  )
        20        Zn     tau(  20) = (  0.3333333  0.3333333  0.3591306  )
        21        Zn     tau(  21) = (  0.3333333  0.5833333  0.1539131  )
        22        Zn     tau(  22) = (  0.3333333  0.5833333  0.3591306  )
        23        Zn     tau(  23) = (  0.3333333  0.8333333  0.1539131  )
        24        Zn     tau(  24) = (  0.3333333  0.8333333  0.3591306  )
        25        Zn     tau(  25) = (  0.8333333  0.0833333  0.1539131  )
        26        Zn     tau(  26) = (  0.8333333  0.0833333  0.3591306  )
        27        Zn     tau(  27) = (  0.8333333  0.3333333  0.1539131  )
        28        Zn     tau(  28) = (  0.8333333  0.3333333  0.3591306  )
        29        Zn     tau(  29) = (  0.8333333  0.5833333  0.1539131  )
        30        Zn     tau(  30) = (  0.8333333  0.5833333  0.3591306  )
        31        Zn     tau(  31) = (  0.8333333  0.8333333  0.1539131  )
        32        Zn     tau(  32) = (  0.8333333  0.8333333  0.3591306  )

     number of k points=     5  Marzari-Vanderbilt smearing, width (Ry)=  0.0200
                       cart. coord. in units 2pi/alat
        k(    1) = (   0.0000000   0.0000000   0.0000000), wk =   0.2222222
        k(    2) = (   0.0000000   0.1924501   0.0000000), wk =   0.4444444
        k(    3) = (   0.3333333   0.1924501   0.0000000), wk =   0.4444444
        k(    4) = (   0.3333333   0.3849002   0.0000000), wk =   0.4444444
        k(    5) = (   0.3333333  -0.0000000   0.0000000), wk =   0.4444444

                       cryst. coord.
        k(    1) = (   0.0000000   0.0000000   0.0000000), wk =   0.2222222
        k(    2) = (   0.0000000   0.3333333   0.0000000), wk =   0.4444444
        k(    3) = (   0.3333333   0.0000000   0.0000000), wk =   0.4444444
        k(    4) = (   0.3333333   0.3333333   0.0000000), wk =   0.4444444
        k(    5) = (   0.3333333  -0.3333333   0.0000000), wk =   0.4444444

     Initial potential from superposition of free atoms

     starting charge     639.9955, renormalised to     640.0000

     negative rho (up, down):  8.211E-04 0.000E+00
     Starting wfcs are  416 randomized atomic wfcs
[psid04:54673] Set MCA parameter "orte_base_help_aggregate" to 0 to see all help / error messages

     Self-consistent Calculation

     iteration #  1     ecut=    30.00 Ry     beta= 0.70
     Davidson diagonalization with overlap

     ethr =  1.00E-02,  avg # of iterations =  8.4

     Threshold (ethr) on eigenvalues was too large:
     Diagonalizing with lowered threshold

     Davidson diagonalization with overlap

[...]

     negative rho (up, down):  3.048E-03 0.000E+00

     total energy              =  -14766.96298912 Ry
     estimated scf accuracy    <       1.49248389 Ry

[...]

     End of self-consistent calculation

          k = 0.0000 0.0000 0.0000 ( 21087 PWs)   bands (ev):

  -123.3816-123.3766-123.3762-123.3762-123.3754-123.3752-123.3750-123.3747
  -123.3746-123.3745-123.3739-123.3737-123.3736-123.3736-123.3732-123.3731
  -123.1056-123.1049-123.1019-123.1016-123.1014-123.1014-123.1013-123.1011
  -123.1010-123.1009-123.1008-123.1007-123.1004-123.1003-123.1002-123.1001
   -77.4887 -77.4886 -77.4881 -77.4880 -77.4840 -77.4834 -77.4813 -77.4813
   -77.4792 -77.4792 -77.4731 -77.4650 -77.4648 -77.4635 -77.4631 -77.4622
   -77.4622 -77.4616 -77.4608 -77.4601 -77.4601 -77.4596 -77.4591 -77.4585
   -77.4581 -77.4576 -77.4568 -77.4553 -77.4551 -77.4533 -77.4533 -77.4524
   -77.4509 -77.4489 -77.4489 -77.4487 -77.4486 -77.4484 -77.4478 -77.4476
   -77.4474 -77.4463 -77.4460 -77.4437 -77.4436 -77.4436 -77.4436 -77.4415
   -77.2120 -77.2120 -77.2114 -77.2114 -77.2078 -77.2071 -77.2038 -77.2038
[...]
     atom   31 type  1   force =     0.00000056    0.01263515 -131.47211290
     atom   32 type  1   force =    -0.00000668    0.06193919  405.04250182
     The local contribution  to forces
     atom    1 type  1   force =    -0.00000122   -0.01080179  410.66181776
     atom    2 type  1   force =    -0.00028666   -0.02715826 -137.08848037
     atom    3 type  1   force =    -0.00000041   -0.00757205  410.66307479
     atom    4 type  1   force =    -0.00021081    0.13290570 -137.07072332
     atom    5 type  1   force =    -0.00000068   -0.00889253  410.66613164
     atom    6 type  1   force =    -0.00006875    0.04442749 -137.00590573
     atom    7 type  1   force =    -0.00000054   -0.01208242  410.66476899
     atom    8 type  1   force =     0.00004608   -0.10717558 -137.03815805
     atom    9 type  1   force =     0.00000111   -0.01080128  410.66181708
     atom   10 type  1   force =     0.00029726   -0.02707503 -137.08874650
     atom   11 type  1   force =     0.00000035   -0.00757105  410.66307523
     atom   12 type  1   force =     0.00020558    0.13312529 -137.07052004
     atom   13 type  1   force =     0.00000056   -0.00889203  410.66613243
     atom   14 type  1   force =     0.00007677    0.04454197 -137.00562040
     atom   15 type  1   force =     0.00000048   -0.01208140  410.66477019
     atom   16 type  1   force =    -0.00005706   -0.10697265 -137.03812564
     atom   17 type  1   force =    -0.00001163   -0.00606154  131.39180859
     atom   18 type  1   force =    -0.00005733   -0.05570699 -405.04884609
     atom   19 type  1   force =    -0.00000605    0.00952033  131.38723188
     atom   20 type  1   force =    -0.00001250    0.04934692 -405.05785198
     atom   21 type  1   force =     0.00000024    0.01074513  131.40887884
     atom   22 type  1   force =     0.00010422    0.04884894 -404.96705532
     atom   23 type  1   force =     0.00000133   -0.00701052  131.41139751
     atom   24 type  1   force =    -0.00000457   -0.05292778 -404.95927082
     atom   25 type  1   force =     0.00000982   -0.00604758  131.39188087
     atom   26 type  1   force =     0.00005404   -0.05569757 -405.04887187
     atom   27 type  1   force =     0.00000608    0.00954680  131.38726810
     atom   28 type  1   force =     0.00001489    0.04930922 -405.05828629
     atom   29 type  1   force =    -0.00000141    0.01073693  131.40891409
     atom   30 type  1   force =    -0.00010521    0.04884625 -404.96700538
     atom   31 type  1   force =    -0.00000063   -0.00702715  131.41140832
     atom   32 type  1   force =     0.00000669   -0.05297700 -404.95918174
     The core correction contribution to forces
     atom    1 type  1   force =     0.00000000    0.00000000    0.00000000
     atom    2 type  1   force =     0.00000000    0.00000000    0.00000000
     atom    3 type  1   force =     0.00000000    0.00000000    0.00000000
     atom    4 type  1   force =     0.00000000    0.00000000    0.00000000
     atom    5 type  1   force =     0.00000000    0.00000000    0.00000000
     atom    6 type  1   force =     0.00000000    0.00000000    0.00000000
     atom    7 type  1   force =     0.00000000    0.00000000    0.00000000
     atom    8 type  1   force =     0.00000000    0.00000000    0.00000000
     atom    9 type  1   force =     0.00000000    0.00000000    0.00000000
     atom   10 type  1   force =     0.00000000    0.00000000    0.00000000
     atom   11 type  1   force =     0.00000000    0.00000000    0.00000000
     atom   12 type  1   force =     0.00000000    0.00000000    0.00000000
     atom   13 type  1   force =     0.00000000    0.00000000    0.00000000
     atom   14 type  1   force =     0.00000000    0.00000000    0.00000000
     atom   15 type  1   force =     0.00000000    0.00000000    0.00000000
     atom   16 type  1   force =     0.00000000    0.00000000    0.00000000
     atom   17 type  1   force =     0.00000000    0.00000000    0.00000000
     atom   18 type  1   force =     0.00000000    0.00000000    0.00000000
     atom   19 type  1   force =     0.00000000    0.00000000    0.00000000
     atom   20 type  1   force =     0.00000000    0.00000000    0.00000000
     atom   21 type  1   force =     0.00000000    0.00000000    0.00000000
     atom   22 type  1   force =     0.00000000    0.00000000    0.00000000
     atom   23 type  1   force =     0.00000000    0.00000000    0.00000000
     atom   24 type  1   force =     0.00000000    0.00000000    0.00000000
     atom   25 type  1   force =     0.00000000    0.00000000    0.00000000
     atom   26 type  1   force =     0.00000000    0.00000000    0.00000000
     atom   27 type  1   force =     0.00000000    0.00000000    0.00000000
     atom   28 type  1   force =     0.00000000    0.00000000    0.00000000
     atom   29 type  1   force =     0.00000000    0.00000000    0.00000000
     atom   30 type  1   force =     0.00000000    0.00000000    0.00000000
     atom   31 type  1   force =     0.00000000    0.00000000    0.00000000
     atom   32 type  1   force =     0.00000000    0.00000000    0.00000000
     The Hubbard contrib.    to forces
     atom    1 type  1   force =     0.00000000    0.00000000    0.00000000
     atom    2 type  1   force =     0.00000000    0.00000000    0.00000000
     atom    3 type  1   force =     0.00000000    0.00000000    0.00000000
     atom    4 type  1   force =     0.00000000    0.00000000    0.00000000
     atom    5 type  1   force =     0.00000000    0.00000000    0.00000000
     atom    6 type  1   force =     0.00000000    0.00000000    0.00000000
     atom    7 type  1   force =     0.00000000    0.00000000    0.00000000
     atom    8 type  1   force =     0.00000000    0.00000000    0.00000000
     atom    9 type  1   force =     0.00000000    0.00000000    0.00000000
     atom   10 type  1   force =     0.00000000    0.00000000    0.00000000
     atom   11 type  1   force =     0.00000000    0.00000000    0.00000000
     atom   12 type  1   force =     0.00000000    0.00000000    0.00000000
     atom   13 type  1   force =     0.00000000    0.00000000    0.00000000
     atom   14 type  1   force =     0.00000000    0.00000000    0.00000000
     atom   15 type  1   force =     0.00000000    0.00000000    0.00000000
     atom   16 type  1   force =     0.00000000    0.00000000    0.00000000
     atom   17 type  1   force =     0.00000000    0.00000000    0.00000000
     atom   18 type  1   force =     0.00000000    0.00000000    0.00000000
     atom   19 type  1   force =     0.00000000    0.00000000    0.00000000
     atom   20 type  1   force =     0.00000000    0.00000000    0.00000000
     atom   21 type  1   force =     0.00000000    0.00000000    0.00000000
     atom   22 type  1   force =     0.00000000    0.00000000    0.00000000
     atom   23 type  1   force =     0.00000000    0.00000000    0.00000000
     atom   24 type  1   force =     0.00000000    0.00000000    0.00000000
     atom   25 type  1   force =     0.00000000    0.00000000    0.00000000
     atom   26 type  1   force =     0.00000000    0.00000000    0.00000000
     atom   27 type  1   force =     0.00000000    0.00000000    0.00000000
     atom   28 type  1   force =     0.00000000    0.00000000    0.00000000
     atom   29 type  1   force =     0.00000000    0.00000000    0.00000000
     atom   30 type  1   force =     0.00000000    0.00000000    0.00000000
     atom   31 type  1   force =     0.00000000    0.00000000    0.00000000
     atom   32 type  1   force =     0.00000000    0.00000000    0.00000000
     The SCF correction term to forces
     atom    1 type  1   force =    -0.00000000    0.00000000   -0.00000000
     atom    2 type  1   force =     0.00000028    0.00002668    0.00005036
     atom    3 type  1   force =    -0.00000000    0.00000000   -0.00000000
     atom    4 type  1   force =     0.00000021    0.00005633    0.00000693
     atom    5 type  1   force =     0.00000000   -0.00000000    0.00000000
     atom    6 type  1   force =     0.00000010   -0.00001966   -0.00006787
     atom    7 type  1   force =     0.00000000   -0.00000000    0.00000000
     atom    8 type  1   force =    -0.00000005   -0.00003241   -0.00002333
     atom    9 type  1   force =     0.00000000    0.00000000   -0.00000000
     atom   10 type  1   force =    -0.00000029    0.00002657    0.00005039
     atom   11 type  1   force =     0.00000000    0.00000000   -0.00000000
     atom   12 type  1   force =    -0.00000021    0.00005612    0.00000692
     atom   13 type  1   force =    -0.00000000   -0.00000000    0.00000000
     atom   14 type  1   force =    -0.00000009   -0.00001974   -0.00006794
     atom   15 type  1   force =    -0.00000000   -0.00000000    0.00000000
     atom   16 type  1   force =     0.00000004   -0.00003260   -0.00002335
     atom   17 type  1   force =    -0.00000000   -0.00000000   -0.00000000
     atom   18 type  1   force =     0.00000006   -0.00000769   -0.00000168
     atom   19 type  1   force =     0.00000000    0.00000000   -0.00000000
     atom   20 type  1   force =     0.00000002    0.00005224   -0.00000890
     atom   21 type  1   force =     0.00000000    0.00000000    0.00000000
     atom   22 type  1   force =    -0.00000010    0.00000399   -0.00005137
     atom   23 type  1   force =     0.00000000   -0.00000000    0.00000000
     atom   24 type  1   force =     0.00000001   -0.00004813   -0.00004061
     atom   25 type  1   force =    -0.00000000   -0.00000000   -0.00000000
     atom   26 type  1   force =    -0.00000007   -0.00000771   -0.00000157
     atom   27 type  1   force =     0.00000000    0.00000000   -0.00000000
     atom   28 type  1   force =    -0.00000002    0.00005226   -0.00000879
     atom   29 type  1   force =    -0.00000000    0.00000000    0.00000000
     atom   30 type  1   force =     0.00000012    0.00000397   -0.00005134
     atom   31 type  1   force =    -0.00000000   -0.00000000    0.00000000
     atom   32 type  1   force =    -0.00000001   -0.00004810   -0.00004065

     Total force =     0.000677     Total SCF correction =     0.000212
     SCF correction compared to forces is large: reduce conv_thr to get better values

     Computing stress (Cartesian axis) and pressure

          total   stress  (Ry/bohr**3)                   (kbar)     P=     -306.23
  -0.00215372   0.00000000  -0.00000000         -316.82        0.00       -0.00
   0.00000000  -0.00204018  -0.00000104            0.00     -300.12       -0.15
  -0.00000000  -0.00000104  -0.00205132           -0.00       -0.15     -301.76

     kinetic stress (kbar)  16703.18      0.00     -0.00
                                0.00  16722.27     -0.40
                               -0.00     -0.40  16806.64

     local   stress (kbar)**********      0.00      0.00
                                0.00**********     -8.64
                                0.00     -8.641524056.65

     nonloc. stress (kbar)  -2013.80     -0.00     -0.00
                               -0.00  -2007.31     -0.20
                               -0.00     -0.20  -2083.70

     hartree stress (kbar) 788776.55     -0.00     -0.00
                               -0.00 788805.17      3.20
                               -0.00      3.20-714719.12

     exc-cor stress (kbar)  -8370.78     -0.00     -0.00
                               -0.00  -8370.61     -0.01
                               -0.00     -0.01  -8382.28

     corecor stress (kbar)      0.00      0.00      0.00
                                0.00      0.00      0.00
                                0.00      0.00      0.00

     ewald   stress (kbar) 709358.22     -0.00     -0.00
                               -0.00 709380.83      5.90
                               -0.00      5.90-815979.94

     hubbard stress (kbar)      0.00      0.00      0.00
                                0.00      0.00      0.00
                                0.00      0.00      0.00

     DFT-D   stress (kbar)      0.00      0.00      0.00
                                0.00      0.00      0.00
                                0.00      0.00      0.00

     XDM     stress (kbar)      0.00      0.00      0.00
                                0.00      0.00      0.00
                                0.00      0.00      0.00

     dft-nl  stress (kbar)      0.00      0.00      0.00
                                0.00      0.00      0.00
                                0.00      0.00      0.00

     TS-vdW  stress (kbar)      0.00      0.00      0.00
                                0.00      0.00      0.00
                                0.00      0.00      0.00

     MDB     stress (kbar)      0.00      0.00      0.00
                                0.00      0.00      0.00
                                0.00      0.00      0.00

     3D-RISM stress (kbar)      0.00      0.00      0.00
                                0.00      0.00      0.00
                                0.00      0.00      0.00

     Energy error            =      6.1E-06 Ry
     Gradient error          =      2.6E-04 Ry/Bohr

     bfgs converged in  20 scf cycles and  19 bfgs steps
     (criteria: energy <  1.0E-05 Ry, force <  5.0E-04 Ry/Bohr)

     End of BFGS Geometry Optimization

     Final energy             =  -14767.7776302668 Ry

     File ./tmp/Zn002_2x2x4_relax_ecutrho250_ecutwfc25.bfgs deleted, as requested
Begin final coordinates

ATOMIC_POSITIONS (angstrom)
Zn              -0.0000000130        1.5094013740        1.2182902100    0   0   0
Zn              -0.0000015064        1.5142308346        6.2418183324
Zn              -1.3071799410        3.7735034240        1.2182902100    0   0   0
Zn              -1.3071815187        3.7789693452        6.2422267090
Zn              -2.6143598690        6.0376054730        1.2182902100    0   0   0
Zn              -2.6143596010        6.0427134194        6.2426429977
Zn              -3.9215397970        8.3017075230        1.2182902100    0   0   0
Zn              -3.9215389747        8.3062360024        6.2424062806
Zn               2.6143598430        1.5094013740        1.2182902100    0   0   0
Zn               2.6143626786        1.5142316129        6.2418208564
Zn               1.3071799150        3.7735034240        1.2182902100    0   0   0
Zn               1.3071821450        3.7789709445        6.2422244244
Zn              -0.0000000130        6.0376054730        1.2182902100    0   0   0
Zn               0.0000008530        6.0427146528        6.2426401483
Zn              -1.3071799410        8.3017075230        1.2182902100    0   0   0
Zn              -1.3071806390        8.3062372265        6.2424059394
Zn               1.3071799410        0.7547006760        3.6548706290    0   0   0
Zn               1.3071793759        0.7442191393        8.8286621377
Zn               0.0000000130        3.0188027250        3.6548706290    0   0   0
Zn               0.0000005839        3.0089234186        8.8288802799
Zn              -1.3071799150        5.2829047750        3.6548706290    0   0   0
Zn              -1.3071784451        5.2730370550        8.8260097737
Zn              -2.6143598430        7.5470068250        3.6548706290    0   0   0
Zn              -2.6143595532        7.5365411093        8.8258033281
Zn               3.9215397970        0.7547006760        3.6548706290    0   0   0
Zn               3.9215410180        0.7442188186        8.8286616024
Zn               2.6143598690        3.0188027250        3.6548706290    0   0   0
Zn               2.6143602096        3.0089227841        8.8288845038
Zn               1.3071799410        5.2829047750        3.6548706290    0   0   0
Zn               1.3071792906        5.2730365717        8.8260091880
Zn               0.0000000130        7.5470068250        3.6548706290    0   0   0
Zn               0.0000005470        7.5365401002        8.8258027248
End final coordinates

     Writing all to output data dir ./tmp/Zn002_2x2x4_relax_ecutrho250_ecutwfc25.save/ :
     XML data file, charge density, pseudopotentials, collected wavefunctions

     General routines

     Parallel routines

   This run was terminated on:  15:26:36  16Mar2025

   JOB DONE.
Note: The following floating-point exceptions are signalling: IEEE_DENORMAL
Note: The following floating-point exceptions are signalling: IEEE_DENORMAL
Note: The following floating-point exceptions are signalling: IEEE_DENORMAL
Note: The following floating-point exceptions are signalling: IEEE_DENORMAL
Note: The following floating-point exceptions are signalling: IEEE_DENORMAL
Note: The following floating-point exceptions are signalling: IEEE_DENORMAL
Note: The following floating-point exceptions are signalling: IEEE_DENORMAL