     Program PWSCF v.7.3.1 starts on 16Apr2025 at  1:58:55

     Waiting for input...
     Reading input from standard input
Warning: card &CELL ignored
Warning: card   CELL_DOFREE = 'ALL' ignored
Warning: card / ignored

     Current dimensions of program PWSCF are:
     Max number of different atomic species (ntypx) = 10
     Max number of k-points (npk) =  40000
     Max angular momentum in pseudopotentials (lmaxx) =  4
     file C.pbe-n-kjpaw_psl.1.0.0.UPF: wavefunction(s)  2S 2P renormalized

     R & G space division:  proc/nbgrp/npool/nimage =      31
     Subspace diagonalization in iterative solution of the eigenvalue problem:
     one sub-group per band group will be used

     Using Slab Decomposition

     bravais-lattice index     =            0
     lattice parameter (alat)  =      18.4179  a.u.
     unit-cell volume          =   15858.2170 (a.u.)^3
     number of atoms/cell      =           65
     number of atomic types    =            4
     number of electrons       =      1002.00
     number of Kohn-Sham states=          601
     kinetic-energy cutoff     =      40.0000  Ry
     charge density cutoff     =     280.0000  Ry
     scf convergence threshold =      1.0E-06
     mixing beta               =       0.4000
     number of iterations used =            8  plain     mixing
     energy convergence thresh.=      5.0E-05
     force convergence thresh. =      8.0E-04
     Exchange-correlation= PBE
                           (   1   4   3   4   0   0   0)
     nstep                     =          300

     celldm(1)=  18.417879  celldm(2)=   0.000000  celldm(3)=   0.000000
     celldm(4)=   0.000000  celldm(5)=   0.000000  celldm(6)=   0.000000

     crystal axes: (cart. coord. in units of alat)
               a(1) = (   1.000000   0.000000   0.000000 )
               a(2) = (   0.000000   1.072963   0.000000 )
               a(3) = (   0.000000  -1.365810   2.365652 )

     reciprocal axes: (cart. coord. in units 2 pi/alat)
               b(1) = (  1.000000  0.000000 -0.000000 )
               b(2) = ( -0.000000  0.931999  0.538090 )
               b(3) = (  0.000000  0.000000  0.422716 )

     PseudoPot. # 1 for Zn read from file:
     /home/yongsang/Research/PSID_server_room/qe/[00]QE/qepseudo/SSSP_1.3.0_PBE_efficiency/Zn_pbe_v1.uspp.F.UPF
     MD5 check sum: df62231357ef9e81f77b2b3087fa5675
     Pseudo is Ultrasoft, Zval = 20.0
     Generated by new atomic code, or converted to UPF format
     Using radial grid of  943 points,  6 beta functions with:
                l(1) =   0
                l(2) =   0
                l(3) =   1
                l(4) =   1
                l(5) =   2
                l(6) =   2
     Q(r) pseudized with  8 coefficients,  rinner =    1.100   1.100   1.100
                                                       1.100   1.100

     PseudoPot. # 2 for N  read from file:
     /home/yongsang/Research/PSID_server_room/qe/[00]QE/qepseudo/SSSP_1.3.0_PBE_efficiency/N.pbe-n-radius_5.UPF
     MD5 check sum: 16739722b17309cd8fe442a2ace49922
     Pseudo is Ultrasoft + core correction, Zval =  5.0
     Generated using "atomic" code by A. Dal Corso  v.5.1
     Using radial grid of 1085 points,  4 beta functions with:
                l(1) =   0
                l(2) =   0
                l(3) =   1
                l(4) =   1
     Q(r) pseudized with 0 coefficients

     PseudoPot. # 3 for C  read from file:
     /home/yongsang/Research/PSID_server_room/qe/[00]QE/qepseudo/SSSP_1.3.0_PBE_efficiency/C.pbe-n-kjpaw_psl.1.0.0.UPF
     MD5 check sum: 5d2aebdfa2cae82b50a7e79e9516da0f
     Pseudo is Projector augmented-wave + core cor, Zval =  4.0
     Generated using "atomic" code by A. Dal Corso  v.5.1
     Shape of augmentation charge: PSQ
     Using radial grid of 1073 points,  4 beta functions with:
                l(1) =   0
                l(2) =   0
                l(3) =   1
                l(4) =   1
     Q(r) pseudized with 0 coefficients

     PseudoPot. # 4 for H  read from file:
     /home/yongsang/Research/PSID_server_room/qe/[00]QE/qepseudo/SSSP_1.3.0_PBE_efficiency/H.pbe-rrkjus_psl.1.0.0.UPF
     MD5 check sum: f52b6d4d1c606e5624b1dc7b2218f220
     Pseudo is Ultrasoft, Zval =  1.0
     Generated using "atomic" code by A. Dal Corso  v.5.1
     Using radial grid of  929 points,  2 beta functions with:
                l(1) =   0
                l(2) =   0
     Q(r) pseudized with 0 coefficients

     atomic species   valence    mass     pseudopotential
     Zn               20.00    65.38000     Zn( 1.00)
     N                 5.00    14.00674     N ( 1.00)
     C                 4.00    12.01070     C ( 1.00)
     H                 1.00     1.00794     H ( 1.00)

     No symmetry found

                                    s                        frac. trans.

      isym =  1     identity

 cryst.   s( 1) = (     1          0          0      )
                  (     0          1          0      )
                  (     0          0          1      )

 cart.    s( 1) = (  1.0000000  0.0000000  0.0000000 )
                  (  0.0000000  1.0000000 -0.0000000 )
                  (  0.0000000  0.0000000  1.0000000 )

   Cartesian axes

     site n.     atom                  positions (alat units)
         1        Zn     tau(   1) = (   0.1250000   0.1341203   0.0774344  )
         2        Zn     tau(   2) = (   0.1250000   0.6706017   0.0774344  )
         3        Zn     tau(   3) = (   0.1254355  -0.0000659   0.3663588  )
         4        Zn     tau(   4) = (   0.1254363   0.5365404   0.3662887  )
         5        Zn     tau(   5) = (   0.1252702  -0.1341656   0.6251262  )
         6        Zn     tau(   6) = (   0.1252777   0.4024072   0.6251464  )
         7        Zn     tau(   7) = (   0.1250000   0.4023610   0.0774344  )
         8        Zn     tau(   8) = (   0.1250000   0.9388424   0.0774344  )
         9        Zn     tau(   9) = (   0.1254456   0.2682606   0.3663796  )
        10        Zn     tau(  10) = (   0.1254350   0.8047243   0.3662418  )
        11        Zn     tau(  11) = (   0.1252783   0.1341187   0.6251453  )
        12        Zn     tau(  12) = (   0.1252697   0.6706189   0.6251228  )
        13        Zn     tau(  13) = (   0.6250000   0.1341203   0.0774344  )
        14        Zn     tau(  14) = (   0.6250000   0.6706017   0.0774344  )
        15        Zn     tau(  15) = (   0.6245281  -0.0000638   0.3665247  )
        16        Zn     tau(  16) = (   0.6245270   0.5365419   0.3664904  )
        17        Zn     tau(  17) = (   0.6247150  -0.1341737   0.6252632  )
        18        Zn     tau(  18) = (   0.6247105   0.4024094   0.6252948  )
        19        Zn     tau(  19) = (   0.6250000   0.4023610   0.0774344  )
        20        Zn     tau(  20) = (   0.6250000   0.9388424   0.0774344  )
        21        Zn     tau(  21) = (   0.6245216   0.2682681   0.3665651  )
        22        Zn     tau(  22) = (   0.6245321   0.8047117   0.3664232  )
        23        Zn     tau(  23) = (   0.6247131   0.1341157   0.6252902  )
        24        Zn     tau(  24) = (   0.6247175   0.6706215   0.6252710  )
        25        Zn     tau(  25) = (   0.3750000   0.0000000   0.1548688  )
        26        Zn     tau(  26) = (   0.3750000   0.5364814   0.1548688  )
        27        Zn     tau(  27) = (   0.3745046  -0.1341714   0.3889500  )
        28        Zn     tau(  28) = (   0.3745046   0.4024249   0.3889898  )
        29        Zn     tau(  29) = (   0.3746919  -0.2682568   0.6329084  )
        30        Zn     tau(  30) = (   0.3746970   0.2682757   0.6328984  )
        31        Zn     tau(  31) = (   0.3750000   0.2682407   0.1548688  )
        32        Zn     tau(  32) = (   0.3750000   0.8047221   0.1548688  )
        33        Zn     tau(  33) = (   0.3745120   0.1340709   0.3890099  )
        34        Zn     tau(  34) = (   0.3744965   0.6706470   0.3889242  )
        35        Zn     tau(  35) = (   0.3746988  -0.0000299   0.6328957  )
        36        Zn     tau(  36) = (   0.3746947   0.5365025   0.6329113  )
        37        Zn     tau(  37) = (   0.8750000   0.0000000   0.1548688  )
        38        Zn     tau(  38) = (   0.8750000   0.5364814   0.1548688  )
        39        Zn     tau(  39) = (   0.8755371  -0.1341797   0.3891205  )
        40        Zn     tau(  40) = (   0.8755441   0.4024177   0.3891626  )
        41        Zn     tau(  41) = (   0.8753258  -0.2682562   0.6328998  )
        42        Zn     tau(  42) = (   0.8753266   0.2682699   0.6328854  )
        43        Zn     tau(  43) = (   0.8750000   0.2682407   0.1548688  )
        44        Zn     tau(  44) = (   0.8750000   0.8047221   0.1548688  )
        45        Zn     tau(  45) = (   0.8755369   0.1340755   0.3891857  )
        46        Zn     tau(  46) = (   0.8755419   0.6706575   0.3890923  )
        47        Zn     tau(  47) = (   0.8753223  -0.0000330   0.6328793  )
        48        Zn     tau(  48) = (   0.8753273   0.5365108   0.6329031  )
        49        C      tau(  49) = (   0.3056581   0.1597649   1.1888648  )
        50        C      tau(  50) = (   0.3581476   0.2703978   1.1121030  )
        51        C      tau(  51) = (   0.3071090   0.1630639   1.3315631  )
        52        C      tau(  52) = (   0.4115518   0.3833774   1.1842429  )
        53        C      tau(  53) = (   0.3600882   0.2753102   1.4045225  )
        54        C      tau(  54) = (   0.4120047   0.3848690   1.3273533  )
        55        C      tau(  55) = (   0.3604824   0.2763550   1.5591902  )
        56        N      tau(  56) = (   0.3571750   0.2676955   0.9706041  )
        57        H      tau(  57) = (   0.3188322   0.1866409   0.9190742  )
        58        H      tau(  58) = (   0.4199351   0.1899395   1.6011491  )
        59        H      tau(  59) = (   0.2636283   0.0705886   1.1354453  )
        60        H      tau(  60) = (   0.3946197   0.3467902   0.9154166  )
        61        H      tau(  61) = (   0.2656940   0.0754838   1.3880573  )
        62        H      tau(  62) = (   0.4529977   0.4705683   1.1272591  )
        63        H      tau(  63) = (   0.4543235   0.4742502   1.3802006  )
        64        H      tau(  64) = (   0.4054433   0.3714369   1.5995916  )
        65        H      tau(  65) = (   0.2558897   0.2675947   1.6009903  )

     DFT-D3 Dispersion Correction (3-body terms):
       Reference C6 values for interpolation:

         atom   Coordination number   C6
         H          0.912             6.05
         H          0.000            15.18
         C          0.000            98.23
         C          0.987            86.49
         C          1.998            58.72
         C          2.999            51.56
         C          3.984            36.41
         N          0.000            50.54
         N          0.994            44.25
         N          2.014            39.35
         N          2.990            31.16
         Zn         0.000           681.04
         Zn         1.942           306.91

       Values used:

         atom   Coordination number  R0_AB[au]  C6      C8
         Zn         4.540            3.053    306.91  23930.67
[...]
     atom   36 type  1   force =     0.00001023    0.00009470    0.00005890
     atom   37 type  1   force =    -0.00000000   -0.00000000    0.00000000
     atom   38 type  1   force =    -0.00000000    0.00000000   -0.00000000
     atom   39 type  1   force =    -0.00002037   -0.00004805    0.00000193
     atom   40 type  1   force =    -0.00002067    0.00004814   -0.00000407
     atom   41 type  1   force =    -0.00001716    0.00003327   -0.00003916
     atom   42 type  1   force =    -0.00002684   -0.00003112    0.00001739
     atom   43 type  1   force =    -0.00000000   -0.00000000   -0.00000000
     atom   44 type  1   force =    -0.00000000    0.00000000    0.00000000
     atom   45 type  1   force =    -0.00002278   -0.00010506   -0.00000581
     atom   46 type  1   force =    -0.00002125    0.00010577    0.00000447
     atom   47 type  1   force =    -0.00002506   -0.00009109   -0.00002368
     atom   48 type  1   force =    -0.00002075    0.00009096   -0.00000034
     atom   49 type  3   force =     0.00000118   -0.00000047   -0.00000232
     atom   50 type  3   force =    -0.00000071    0.00000023   -0.00000616
     atom   51 type  3   force =     0.00000500    0.00000183   -0.00000940
     atom   52 type  3   force =    -0.00000692   -0.00000147   -0.00000520
     atom   53 type  3   force =     0.00000365    0.00000090   -0.00000806
     atom   54 type  3   force =    -0.00000512   -0.00000760   -0.00000546
     atom   55 type  3   force =     0.00000123    0.00000476   -0.00000212
     atom   56 type  2   force =     0.00001364    0.00000286    0.00000321
     atom   57 type  4   force =     0.00000183   -0.00000093    0.00000284
     atom   58 type  4   force =     0.00000068    0.00000029   -0.00000073
     atom   59 type  4   force =    -0.00000011   -0.00000066    0.00000004
     atom   60 type  4   force =     0.00000099   -0.00000151    0.00000397
     atom   61 type  4   force =     0.00000016   -0.00000090   -0.00000192
     atom   62 type  4   force =    -0.00000095    0.00000043   -0.00000103
     atom   63 type  4   force =    -0.00000004    0.00000053   -0.00000043
     atom   64 type  4   force =    -0.00000051   -0.00000058    0.00000002
     atom   65 type  4   force =    -0.00000006    0.00000101   -0.00000028

     DFT-D3 dispersion contribution to forces:
     atom    1 type  1   force =    -0.00000130    0.00000097    0.00156026
     atom    2 type  1   force =     0.00000434   -0.00000042    0.00156855
     atom    3 type  1   force =     0.00001425    0.00001431    0.00164908
     atom    4 type  1   force =     0.00000984   -0.00001840    0.00161011
     atom    5 type  1   force =     0.00006832    0.00011870   -0.00102457
     atom    6 type  1   force =     0.00051362   -0.00027892   -0.00036722
     atom    7 type  1   force =    -0.00000253   -0.00000138    0.00155606
     atom    8 type  1   force =     0.00000317    0.00000102    0.00156976
     atom    9 type  1   force =    -0.00015404    0.00000393    0.00151238
     atom   10 type  1   force =     0.00000732    0.00000446    0.00162266
     atom   11 type  1   force =     0.00047607    0.00021546   -0.00038723
     atom   12 type  1   force =     0.00005983   -0.00008893   -0.00106638
     atom   13 type  1   force =     0.00000227    0.00000128    0.00156181
     atom   14 type  1   force =    -0.00000347   -0.00000106    0.00156719
     atom   15 type  1   force =    -0.00001403    0.00001993    0.00162331
     atom   16 type  1   force =    -0.00001178   -0.00001779    0.00163841
     atom   17 type  1   force =    -0.00004869    0.00006514   -0.00109396
     atom   18 type  1   force =    -0.00047686   -0.00016537   -0.00049702
     atom   19 type  1   force =     0.00000078   -0.00000171    0.00155730
     atom   20 type  1   force =    -0.00000458    0.00000105    0.00157071
     atom   21 type  1   force =     0.00018383    0.00000329    0.00147433
     atom   22 type  1   force =    -0.00000607   -0.00000248    0.00162221
     atom   23 type  1   force =    -0.00043809    0.00021102   -0.00055868
     atom   24 type  1   force =    -0.00006372   -0.00009291   -0.00105289
     atom   25 type  1   force =    -0.00000045    0.00001546    0.00274920
     atom   26 type  1   force =     0.00000227   -0.00001504    0.00274666
     atom   27 type  1   force =    -0.00000259   -0.00000674   -0.00247667
     atom   28 type  1   force =    -0.00002425    0.00004429   -0.00234123
     atom   29 type  1   force =    -0.00000186   -0.00000233   -0.00211417
     atom   30 type  1   force =    -0.00006259   -0.00001270   -0.00069261
     atom   31 type  1   force =     0.00000151   -0.00000027    0.00275820
     atom   32 type  1   force =     0.00000072    0.00000008    0.00272789
     atom   33 type  1   force =     0.00002205   -0.00004560   -0.00234840
     atom   34 type  1   force =     0.00001075    0.00000972   -0.00247507
     atom   35 type  1   force =    -0.00007525    0.00053015   -0.00140567
     atom   36 type  1   force =    -0.00000774   -0.00053759   -0.00138149
     atom   37 type  1   force =     0.00000055   -0.00000004    0.00272838
     atom   38 type  1   force =    -0.00000210    0.00000022    0.00272583
     atom   39 type  1   force =    -0.00000500   -0.00000303   -0.00248730
     atom   40 type  1   force =     0.00001760    0.00000415   -0.00245747
     atom   41 type  1   force =    -0.00000003    0.00000231   -0.00220148
     atom   42 type  1   force =     0.00002108   -0.00000010   -0.00209337
     atom   43 type  1   force =    -0.00000092   -0.00000126    0.00272523
     atom   44 type  1   force =    -0.00000093    0.00000078    0.00272832
     atom   45 type  1   force =    -0.00002106   -0.00000640   -0.00247239
     atom   46 type  1   force =    -0.00000450    0.00000652   -0.00248761
     atom   47 type  1   force =     0.00000726    0.00002956   -0.00215957
     atom   48 type  1   force =    -0.00000226   -0.00002991   -0.00216683
     atom   49 type  3   force =    -0.00008133   -0.00017619   -0.00012127
     atom   50 type  3   force =    -0.00000094   -0.00000239   -0.00085617
     atom   51 type  3   force =    -0.00004824   -0.00010279   -0.00005863
     atom   52 type  3   force =     0.00008799    0.00018969   -0.00015045
     atom   53 type  3   force =     0.00000329    0.00000610   -0.00012252
     atom   54 type  3   force =     0.00004610    0.00009961   -0.00021887
     atom   55 type  3   force =    -0.00000019    0.00000230   -0.00010997
     atom   56 type  2   force =     0.00000622    0.00000118   -0.00172951
     atom   57 type  4   force =     0.00001504    0.00005524   -0.00175444
     atom   58 type  4   force =     0.00004843   -0.00005905   -0.00011689
     atom   59 type  4   force =     0.00000843    0.00000514   -0.00020719
     atom   60 type  4   force =    -0.00001174   -0.00002997   -0.00174699
     atom   61 type  4   force =     0.00002947    0.00005313    0.00005782
     atom   62 type  4   force =    -0.00001010   -0.00000844   -0.00022834
     atom   63 type  4   force =    -0.00002327   -0.00003917   -0.00000746
     atom   64 type  4   force =     0.00001539    0.00003258    0.00014474
     atom   65 type  4   force =    -0.00007531   -0.00000038   -0.00011844

     Total force =     0.001872     Total SCF correction =     0.000586

     DFT-D3 dispersion Force =     0.013871
     SCF correction compared to forces is large: reduce conv_thr to get better values

     Computing stress (Cartesian axis) and pressure

     negative rho (up, down):  3.084E-03 0.000E+00
          total   stress  (Ry/bohr**3)                   (kbar)     P=      -17.25
  -0.00019789   0.00000035  -0.00000007          -29.11        0.05       -0.01
   0.00000035  -0.00013413   0.00000016            0.05      -19.73        0.02
  -0.00000007   0.00000016  -0.00001984           -0.01        0.02       -2.92

     kinetic stress (kbar)  12413.78    -25.01     -0.02
                              -25.01  12348.44      0.05
                               -0.02      0.05  12399.30

     local   stress (kbar)-952578.99   -617.01     -3.99
                             -617.01-965970.11    -17.50
                               -3.99    -17.50 962427.33

     nonloc. stress (kbar)  -1196.45      1.73      0.00
                                1.73  -1165.87      0.01
                                0.00      0.01  -1213.56

     hartree stress (kbar) 503000.73    227.31      1.80
                              227.31 508694.92      7.71
                                1.80      7.71-447954.80

     exc-cor stress (kbar)  -6050.04      1.24     -0.00
                                1.24  -6044.65     -0.00
                               -0.00     -0.00  -6052.01

     corecor stress (kbar)    -75.89     -0.37      0.00
                               -0.37    -76.49      0.00
                                0.00      0.00    -76.58

     ewald   stress (kbar) 444463.78    412.16      2.20
                              412.16 452202.75      9.75
                                2.20      9.75-519529.32

     hubbard stress (kbar)      0.00      0.00      0.00
                                0.00      0.00      0.00
                                0.00      0.00      0.00

     DFT-D   stress (kbar)     -6.04      0.00     -0.00
                                0.00     -8.72     -0.00
                               -0.00     -0.00     -3.30

     XDM     stress (kbar)      0.00      0.00      0.00
                                0.00      0.00      0.00
                                0.00      0.00      0.00

     dft-nl  stress (kbar)      0.00      0.00      0.00
                                0.00      0.00      0.00
                                0.00      0.00      0.00

     TS-vdW  stress (kbar)      0.00      0.00      0.00
                                0.00      0.00      0.00
                                0.00      0.00      0.00

     MDB     stress (kbar)      0.00      0.00      0.00
                                0.00      0.00      0.00
                                0.00      0.00      0.00

     3D-RISM stress (kbar)      0.00      0.00      0.00
                                0.00      0.00      0.00
                                0.00      0.00      0.00

     Energy error            =      1.0E-05 Ry
     Gradient error          =      5.9E-04 Ry/Bohr

     bfgs converged in  14 scf cycles and  13 bfgs steps
     (criteria: energy <  5.0E-05 Ry, force <  8.0E-04 Ry/Bohr)

     End of BFGS Geometry Optimization

     Final energy             =  -22314.6561533347 Ry

     File ./tmp/Zn100_3layer_ptoluidine_relax.bfgs deleted, as requested
Begin final coordinates

ATOMIC_POSITIONS (angstrom)
Zn               1.2182900000        1.3071800000        0.7547010000    0   0   0
Zn               1.2182900000        6.5359000000        0.7547010000    0   0   0
Zn               1.2168911279        0.0002661457        3.5724654530
Zn               1.2172289636        5.2275110211        3.5702059044
Zn               1.2181691082       -1.3066499457        6.0971997838
Zn               1.2215494845        3.9199427524        6.1176735328
Zn               1.2182900000        3.9215400000        0.7547010000    0   0   0
Zn               1.2182900000        9.1502600000        0.7547010000    0   0   0
Zn               1.2147163791        2.6152066991        3.5716060968
Zn               1.2177157994        7.8430696586        3.5704767097
Zn               1.2188256926        1.3075052122        6.1000241417
Zn               1.2185162346        6.5342235523        6.0976887675
Zn               6.0914510000        1.3071800000        0.7547010000    0   0   0
Zn               6.0914510000        6.5359000000        0.7547010000    0   0   0
Zn               6.0930300806        0.0008224917        3.5697017603
Zn               6.0927173565        5.2282772695        3.5727809618
Zn               6.0915135873       -1.3061490863        6.0972825185
Zn               6.0918762058        3.9220270092        6.1035058081
Zn               6.0914510000        3.9215400000        0.7547010000    0   0   0
Zn               6.0914510000        9.1502600000        0.7547010000    0   0   0
Zn               6.0947958001        2.6143194461        3.5714400367
Zn               6.0922216255        7.8430993721        3.5712862119
Zn               6.0924808986        1.3070660590        6.1115418696
Zn               6.0916892819        6.5354682618        6.0964059772
Zn               3.6548710000       -0.0000000000        1.5094010000    0   0   0
Zn               3.6548710000        5.2287200000        1.5094010000    0   0   0
Zn               3.6547011385       -1.3084559618        3.7848599615
Zn               3.6543944840        3.9277021661        3.7713140067
Zn               3.6554675863       -2.6143777549        6.1601269561
Zn               3.6625949483        2.6132280474        6.0989013889
Zn               3.6548710000        2.6143600000        1.5094010000    0   0   0
Zn               3.6548710000        7.8430800000        1.5094010000    0   0   0
Zn               3.6557895846        1.3006041156        3.7718515445
Zn               3.6559278887        6.5372765352        3.7852949323
Zn               3.6555916481        0.0010159576        6.1624730808
Zn               3.6548607662        5.2265764173        6.1604171061
Zn               8.5280310000       -0.0000000000        1.5094010000    0   0   0
Zn               8.5280310000        5.2287200000        1.5094010000    0   0   0
Zn               8.5272696187       -1.3072753230        3.7822991302
Zn               8.5271086414        3.9218195733        3.7823916562
Zn               8.5276792128       -2.6142555388        6.1565944767
Zn               8.5280987936        2.6147124563        6.1606258937
Zn               8.5280310000        2.6143600000        1.5094010000    0   0   0
Zn               8.5280310000        7.8430800000        1.5094010000    0   0   0
Zn               8.5279144974        1.3070280213        3.7828446045
Zn               8.5279500368        6.5359318991        3.7829727531
Zn               8.5273062831        0.0006121255        6.1584134596
Zn               8.5279662429        5.2276282017        6.1581470802
C                2.9808417259        1.5543834695       11.5839909855
C                3.4917788186        2.6342312461       10.8361479655
C                2.9940352808        1.5857834543       12.9748551618
C                4.0109733522        3.7355299380       11.5410913952
C                3.5088965337        2.6797173435       13.6874234733
C                4.0142192201        3.7478654026       12.9351118369
C                3.5133428464        2.6955453691       15.1951845860
N                3.4796138832        2.6109729009        9.4579718644
H                3.1006551617        1.8261833774        8.9461560128
H                4.0940964184        1.8555642719       15.6071395633
H                2.5700720539        0.6860970259       11.0636160148
H                3.8408106653        3.3832658273        8.9142690259
H                2.5888342873        0.7328997993       13.5248417557
H                4.4142235493        4.5874697894       10.9888477535
H                4.4237807466        4.6181884421       13.4532109258
H                3.9523815758        3.6241222452       15.5840203779
H                2.4946459416        2.6125313429       15.6048278102
End final coordinates

     Writing all to output data dir ./tmp/Zn100_3layer_ptoluidine_relax.save/ :
     XML data file, charge density, pseudopotentials, collected wavefunctions

     General routines

     Parallel routines

     PAW routines

   This run was terminated on:   6:22:21  16Apr2025

   JOB DONE.
Note: The following floating-point exceptions are signalling: IEEE_DENORMAL
Note: The following floating-point exceptions are signalling: IEEE_DENORMAL
Note: The following floating-point exceptions are signalling: IEEE_DENORMAL
Note: The following floating-point exceptions are signalling: IEEE_DENORMAL
Note: The following floating-point exceptions are signalling: IEEE_DENORMAL
Note: The following floating-point exceptions are signalling: IEEE_DENORMAL
Note: The following floating-point exceptions are signalling: IEEE_DENORMAL
Note: The following floating-point exceptions are signalling: IEEE_DENORMAL
Note: The following floating-point exceptions are signalling: IEEE_DENORMAL
Note: The following floating-point exceptions are signalling: IEEE_DENORMAL
Note: The following floating-point exceptions are signalling: IEEE_DENORMAL
Note: The following floating-point exceptions are signalling: IEEE_DENORMAL