     Program PWSCF v.7.3.1 starts on 25Mar2025 at  4: 3:38

     Waiting for input...
     Reading input from standard input

     Current dimensions of program PWSCF are:
     Max number of different atomic species (ntypx) = 10
     Max number of k-points (npk) =  40000
     Max angular momentum in pseudopotentials (lmaxx) =  4
     file C.pbe-n-kjpaw_psl.1.0.0.UPF: wavefunction(s)  2S 2P renormalized

     R & G space division:  proc/nbgrp/npool/nimage =      34
     Subspace diagonalization in iterative solution of the eigenvalue problem:
     one sub-group per band group will be used

     Using Slab Decomposition

     bravais-lattice index     =            0
     lattice parameter (alat)  =      19.7617  a.u.
     unit-cell volume          =   15176.5939 (a.u.)^3
     number of atoms/cell      =           79
     number of atomic types    =            4
     number of electrons       =      1324.00
     number of Kohn-Sham states=          794
     kinetic-energy cutoff     =      30.0000  Ry
     charge density cutoff     =     120.0000  Ry
     scf convergence threshold =      1.0E-08
     mixing beta               =       0.7000
     number of iterations used =            8  plain     mixing
     Exchange-correlation= PBE
                           (   1   4   3   4   0   0   0)

     celldm(1)=  19.761696  celldm(2)=   0.000000  celldm(3)=   0.000000
     celldm(4)=   0.000000  celldm(5)=   0.000000  celldm(6)=   0.000000

     crystal axes: (cart. coord. in units of alat)
               a(1) = (   1.000000   0.000000   0.000000 )
               a(2) = (  -0.500000   0.866025   0.000000 )
               a(3) = (   0.000000   0.000000   2.270759 )

     reciprocal axes: (cart. coord. in units 2 pi/alat)
               b(1) = (  1.000000  0.577350 -0.000000 )
               b(2) = (  0.000000  1.154701  0.000000 )
               b(3) = (  0.000000 -0.000000  0.440381 )

     PseudoPot. # 1 for Zn read from file:
     /home/ys/qepseudo/SSSP_1.3.0_PBE_efficiency/Zn_pbe_v1.uspp.F.UPF
     MD5 check sum: df62231357ef9e81f77b2b3087fa5675
     Pseudo is Ultrasoft, Zval = 20.0
     Generated by new atomic code, or converted to UPF format
     Using radial grid of  943 points,  6 beta functions with:
                l(1) =   0
                l(2) =   0
                l(3) =   1
                l(4) =   1
                l(5) =   2
                l(6) =   2
     Q(r) pseudized with  8 coefficients,  rinner =    1.100   1.100   1.100
                                                       1.100   1.100

     PseudoPot. # 2 for C  read from file:
     /home/ys/qepseudo/SSSP_1.3.0_PBE_efficiency/C.pbe-n-kjpaw_psl.1.0.0.UPF
     MD5 check sum: 5d2aebdfa2cae82b50a7e79e9516da0f
     Pseudo is Projector augmented-wave + core cor, Zval =  4.0
     Generated using "atomic" code by A. Dal Corso  v.5.1
     Shape of augmentation charge: PSQ
     Using radial grid of 1073 points,  4 beta functions with:
                l(1) =   0
                l(2) =   0
                l(3) =   1
                l(4) =   1
     Q(r) pseudized with 0 coefficients

     PseudoPot. # 3 for N  read from file:
     /home/ys/qepseudo/SSSP_1.3.0_PBE_efficiency/N.pbe-n-radius_5.UPF
     MD5 check sum: 16739722b17309cd8fe442a2ace49922
     Pseudo is Ultrasoft + core correction, Zval =  5.0
     Generated using "atomic" code by A. Dal Corso  v.5.1
     Using radial grid of 1085 points,  4 beta functions with:
                l(1) =   0
                l(2) =   0
                l(3) =   1
                l(4) =   1
     Q(r) pseudized with 0 coefficients

     PseudoPot. # 4 for H  read from file:
     /home/ys/qepseudo/SSSP_1.3.0_PBE_efficiency/H.pbe-rrkjus_psl.1.0.0.UPF
     MD5 check sum: f52b6d4d1c606e5624b1dc7b2218f220
     Pseudo is Ultrasoft, Zval =  1.0
     Generated using "atomic" code by A. Dal Corso  v.5.1
     Using radial grid of  929 points,  2 beta functions with:
                l(1) =   0
                l(2) =   0
     Q(r) pseudized with 0 coefficients

     atomic species   valence    mass     pseudopotential
     Zn               20.00    65.38000     Zn( 1.00)
     C                 4.00    12.01070     C ( 1.00)
     N                 5.00    14.00670     N ( 1.00)
     H                 1.00     1.00800     H ( 1.00)

     No symmetry found

                                    s                        frac. trans.

      isym =  1     identity

 cryst.   s( 1) = (     1          0          0      )
                  (     0          1          0      )
                  (     0          0          1      )

 cart.    s( 1) = (  1.0000000  0.0000000  0.0000000 )
                  (  0.0000000  1.0000000  0.0000000 )
                  (  0.0000000  0.0000000  1.0000000 )

   Cartesian axes

     site n.     atom                  positions (alat units)
         1        Zn     tau(   1) = (  -0.0000000   0.1443376   0.1164999  )
         2        Zn     tau(   2) = (   0.5000000   0.1443376   0.1164999  )
         3        Zn     tau(   3) = (   0.0000919   0.1444891   0.5718932  )
         4        Zn     tau(   4) = (   0.5001401   0.1440829   0.5703571  )
         5        Zn     tau(   5) = (  -0.1250000   0.3608439   0.1164999  )
         6        Zn     tau(   6) = (   0.3750000   0.3608439   0.1164999  )
         7        Zn     tau(   7) = (  -0.1247712   0.3609876   0.5717521  )
         8        Zn     tau(   8) = (   0.3746805   0.3612275   0.5703296  )
         9        Zn     tau(   9) = (  -0.2500000   0.5773503   0.1164999  )
        10        Zn     tau(  10) = (   0.2500000   0.5773503   0.1164999  )
        11        Zn     tau(  11) = (  -0.2497700   0.5775781   0.5717797  )
        12        Zn     tau(  12) = (   0.2500224   0.5775422   0.5715270  )
        13        Zn     tau(  13) = (  -0.3750000   0.7938566   0.1164999  )
        14        Zn     tau(  14) = (   0.1250000   0.7938566   0.1164999  )
        15        Zn     tau(  15) = (  -0.3749466   0.7940221   0.5715032  )
        16        Zn     tau(  16) = (   0.1251479   0.7938894   0.5717371  )
        17        Zn     tau(  17) = (   0.2500000   0.1443376   0.1164999  )
        18        Zn     tau(  18) = (   0.7500000   0.1443376   0.1164999  )
        19        Zn     tau(  19) = (   0.2498286   0.1444068   0.5711996  )
        20        Zn     tau(  20) = (   0.7503461   0.1443488   0.5713354  )
        21        Zn     tau(  21) = (   0.1250000   0.3608439   0.1164999  )
        22        Zn     tau(  22) = (   0.6250000   0.3608439   0.1164999  )
        23        Zn     tau(  23) = (   0.1250046   0.3609944   0.5715452  )
        24        Zn     tau(  24) = (   0.6254897   0.3611651   0.5703786  )
        25        Zn     tau(  25) = (  -0.0000000   0.5773503   0.1164999  )
        26        Zn     tau(  26) = (   0.5000000   0.5773503   0.1164999  )
        27        Zn     tau(  27) = (   0.0000947   0.5774765   0.5717250  )
        28        Zn     tau(  28) = (   0.5000489   0.5777477   0.5712229  )
        29        Zn     tau(  29) = (  -0.1250000   0.7938566   0.1164999  )
        30        Zn     tau(  30) = (   0.3750000   0.7938566   0.1164999  )
        31        Zn     tau(  31) = (  -0.1249271   0.7938390   0.5717767  )
        32        Zn     tau(  32) = (   0.3750923   0.7940127   0.5718864  )
        33        Zn     tau(  33) = (   0.1250000   0.0721688   0.3494996  )
        34        Zn     tau(  34) = (   0.6250000   0.0721688   0.3494996  )
        35        Zn     tau(  35) = (   0.1251920   0.0726115   0.8148491  )
        36        Zn     tau(  36) = (   0.6252156   0.0724631   0.8155515  )
        37        Zn     tau(  37) = (   0.0000000   0.2886751   0.3494996  )
        38        Zn     tau(  38) = (   0.5000000   0.2886751   0.3494996  )
        39        Zn     tau(  39) = (   0.0002707   0.2890852   0.8155094  )
        40        Zn     tau(  40) = (   0.5001166   0.2891297   0.8037374  )
        41        Zn     tau(  41) = (  -0.1250000   0.5051815   0.3494996  )
        42        Zn     tau(  42) = (   0.3750000   0.5051815   0.3494996  )
        43        Zn     tau(  43) = (  -0.1246678   0.5055953   0.8152510  )
        44        Zn     tau(  44) = (   0.3751247   0.5056097   0.8160989  )
        45        Zn     tau(  45) = (  -0.2500000   0.7216878   0.3494996  )
        46        Zn     tau(  46) = (   0.2500000   0.7216878   0.3494996  )
        47        Zn     tau(  47) = (  -0.2498227   0.7220662   0.8156814  )
        48        Zn     tau(  48) = (   0.2501856   0.7220497   0.8155660  )
        49        Zn     tau(  49) = (   0.3750000   0.0721688   0.3494996  )
        50        Zn     tau(  50) = (   0.8750000   0.0721688   0.3494996  )
        51        Zn     tau(  51) = (   0.3751191   0.0724194   0.8128663  )
        52        Zn     tau(  52) = (   0.8751699   0.0725850   0.8153100  )
        53        Zn     tau(  53) = (   0.2500000   0.2886751   0.3494996  )
        54        Zn     tau(  54) = (   0.7500000   0.2886751   0.3494996  )
        55        Zn     tau(  55) = (   0.2501500   0.2891474   0.8163492  )
        56        Zn     tau(  56) = (   0.7503339   0.2890919   0.8155709  )
        57        Zn     tau(  57) = (   0.1250000   0.5051815   0.3494996  )
        58        Zn     tau(  58) = (   0.6250000   0.5051815   0.3494996  )
        59        Zn     tau(  59) = (   0.1252635   0.5055594   0.8147593  )
        60        Zn     tau(  60) = (   0.6253034   0.5056626   0.8134436  )
[...]
        65        C      tau(  65) = (   0.5906464   0.2283291   1.6718584  )
        66        C      tau(  66) = (   0.5696681   0.2405519   1.5379848  )
        67        C      tau(  67) = (   0.5010665   0.1459804   1.4703634  )
        68        C      tau(  68) = (   0.6169399   0.3473224   1.4702298  )
        69        C      tau(  69) = (   0.5957303   0.3595100   1.3400699  )
        70        C      tau(  70) = (   0.4797752   0.1581913   1.3402401  )
        71        C      tau(  71) = (   0.5261558   0.2654704   1.2722574  )
        72        N      tau(  72) = (   0.6078177   0.2179181   1.7823484  )
        73        N      tau(  73) = (   0.4990624   0.2808922   1.1445168  )
        74        H      tau(  74) = (   0.5512369   0.3451578   1.0929778  )
        75        H      tau(  75) = (   0.4695321   0.2034025   1.0932174  )
        76        H      tau(  76) = (   0.4643745   0.0627104   1.5219463  )
        77        H      tau(  77) = (   0.6705225   0.4209393   1.5216882  )
        78        H      tau(  78) = (   0.6325892   0.4430777   1.2888032  )
        79        H      tau(  79) = (   0.4260501   0.0842634   1.2891064  )

   Crystallographic axes

     site n.     atom                  positions (cryst. coord.)
         1        Zn     tau(   1) = (  0.0833333  0.1666667  0.0513044  )
         2        Zn     tau(   2) = (  0.5833333  0.1666667  0.0513044  )
         3        Zn     tau(   3) = (  0.0835128  0.1668417  0.2518512  )
         4        Zn     tau(   4) = (  0.5833264  0.1663726  0.2511747  )
         5        Zn     tau(   5) = (  0.0833333  0.4166667  0.0513044  )
[...]
[...]
     atom   65 type  2   force =     0.00066862   -0.00044762    0.00889803
     atom   66 type  2   force =    -0.00043603    0.00004191    0.00175857
     atom   67 type  2   force =    -0.00187292   -0.00201033   -0.00675489
     atom   68 type  2   force =     0.00090302    0.00241443   -0.00662852
     atom   69 type  2   force =     0.00169775    0.00163146    0.00577740
     atom   70 type  2   force =    -0.00058313   -0.00232073    0.00564608
     atom   71 type  2   force =     0.00190335   -0.00088997   -0.00142625
     atom   72 type  3   force =     0.00176605   -0.00108199    0.01131815
     atom   73 type  3   force =    -0.00517129    0.00298278   -0.00026513
     atom   74 type  4   force =     0.00000000    0.00000000    0.00000000
     atom   75 type  4   force =     0.00000000    0.00000000    0.00000000
     atom   76 type  4   force =     0.00000000    0.00000000    0.00000000
     atom   77 type  4   force =     0.00000000    0.00000000    0.00000000
     atom   78 type  4   force =     0.00000000    0.00000000    0.00000000
     atom   79 type  4   force =     0.00000000    0.00000000    0.00000000
     The Hubbard contrib.    to forces
     atom    1 type  1   force =     0.00000000    0.00000000    0.00000000
     atom    2 type  1   force =     0.00000000    0.00000000    0.00000000
     atom    3 type  1   force =     0.00000000    0.00000000    0.00000000
     atom    4 type  1   force =     0.00000000    0.00000000    0.00000000
     atom    5 type  1   force =     0.00000000    0.00000000    0.00000000
     atom    6 type  1   force =     0.00000000    0.00000000    0.00000000
     atom    7 type  1   force =     0.00000000    0.00000000    0.00000000
     atom    8 type  1   force =     0.00000000    0.00000000    0.00000000
     atom    9 type  1   force =     0.00000000    0.00000000    0.00000000
     atom   10 type  1   force =     0.00000000    0.00000000    0.00000000
     atom   11 type  1   force =     0.00000000    0.00000000    0.00000000
     atom   12 type  1   force =     0.00000000    0.00000000    0.00000000
     atom   13 type  1   force =     0.00000000    0.00000000    0.00000000
     atom   14 type  1   force =     0.00000000    0.00000000    0.00000000
     atom   15 type  1   force =     0.00000000    0.00000000    0.00000000
     atom   16 type  1   force =     0.00000000    0.00000000    0.00000000
     atom   17 type  1   force =     0.00000000    0.00000000    0.00000000
     atom   18 type  1   force =     0.00000000    0.00000000    0.00000000
     atom   19 type  1   force =     0.00000000    0.00000000    0.00000000
     atom   20 type  1   force =     0.00000000    0.00000000    0.00000000
     atom   21 type  1   force =     0.00000000    0.00000000    0.00000000
     atom   22 type  1   force =     0.00000000    0.00000000    0.00000000
     atom   23 type  1   force =     0.00000000    0.00000000    0.00000000
     atom   24 type  1   force =     0.00000000    0.00000000    0.00000000
     atom   25 type  1   force =     0.00000000    0.00000000    0.00000000
     atom   26 type  1   force =     0.00000000    0.00000000    0.00000000
     atom   27 type  1   force =     0.00000000    0.00000000    0.00000000
     atom   28 type  1   force =     0.00000000    0.00000000    0.00000000
     atom   29 type  1   force =     0.00000000    0.00000000    0.00000000
     atom   30 type  1   force =     0.00000000    0.00000000    0.00000000
     atom   31 type  1   force =     0.00000000    0.00000000    0.00000000
     atom   32 type  1   force =     0.00000000    0.00000000    0.00000000
     atom   33 type  1   force =     0.00000000    0.00000000    0.00000000
     atom   34 type  1   force =     0.00000000    0.00000000    0.00000000
     atom   35 type  1   force =     0.00000000    0.00000000    0.00000000
     atom   36 type  1   force =     0.00000000    0.00000000    0.00000000
     atom   37 type  1   force =     0.00000000    0.00000000    0.00000000
     atom   38 type  1   force =     0.00000000    0.00000000    0.00000000
     atom   39 type  1   force =     0.00000000    0.00000000    0.00000000
     atom   40 type  1   force =     0.00000000    0.00000000    0.00000000
     atom   41 type  1   force =     0.00000000    0.00000000    0.00000000
     atom   42 type  1   force =     0.00000000    0.00000000    0.00000000
     atom   43 type  1   force =     0.00000000    0.00000000    0.00000000
     atom   44 type  1   force =     0.00000000    0.00000000    0.00000000
     atom   45 type  1   force =     0.00000000    0.00000000    0.00000000
     atom   46 type  1   force =     0.00000000    0.00000000    0.00000000
     atom   47 type  1   force =     0.00000000    0.00000000    0.00000000
     atom   48 type  1   force =     0.00000000    0.00000000    0.00000000
     atom   49 type  1   force =     0.00000000    0.00000000    0.00000000
     atom   50 type  1   force =     0.00000000    0.00000000    0.00000000
     atom   51 type  1   force =     0.00000000    0.00000000    0.00000000
     atom   52 type  1   force =     0.00000000    0.00000000    0.00000000
     atom   53 type  1   force =     0.00000000    0.00000000    0.00000000
     atom   54 type  1   force =     0.00000000    0.00000000    0.00000000
     atom   55 type  1   force =     0.00000000    0.00000000    0.00000000
     atom   56 type  1   force =     0.00000000    0.00000000    0.00000000
     atom   57 type  1   force =     0.00000000    0.00000000    0.00000000
     atom   58 type  1   force =     0.00000000    0.00000000    0.00000000
     atom   59 type  1   force =     0.00000000    0.00000000    0.00000000
     atom   60 type  1   force =     0.00000000    0.00000000    0.00000000
[...]
     atom   65 type  2   force =     0.00000000    0.00000000    0.00000000
     atom   66 type  2   force =     0.00000000    0.00000000    0.00000000
     atom   67 type  2   force =     0.00000000    0.00000000    0.00000000
     atom   68 type  2   force =     0.00000000    0.00000000    0.00000000
     atom   69 type  2   force =     0.00000000    0.00000000    0.00000000
     atom   70 type  2   force =     0.00000000    0.00000000    0.00000000
     atom   71 type  2   force =     0.00000000    0.00000000    0.00000000
     atom   72 type  3   force =     0.00000000    0.00000000    0.00000000
     atom   73 type  3   force =     0.00000000    0.00000000    0.00000000
     atom   74 type  4   force =     0.00000000    0.00000000    0.00000000
     atom   75 type  4   force =     0.00000000    0.00000000    0.00000000
     atom   76 type  4   force =     0.00000000    0.00000000    0.00000000
     atom   77 type  4   force =     0.00000000    0.00000000    0.00000000
     atom   78 type  4   force =     0.00000000    0.00000000    0.00000000
     atom   79 type  4   force =     0.00000000    0.00000000    0.00000000
     The SCF correction term to forces
     atom    1 type  1   force =     0.00000000   -0.00000000    0.00000000
     atom    2 type  1   force =    -0.00000000    0.00000000    0.00000000
     atom    3 type  1   force =     0.00001145    0.00001237    0.00001462
     atom    4 type  1   force =    -0.00001425    0.00002513   -0.00001367
     atom    5 type  1   force =    -0.00000000    0.00000000    0.00000000
     atom    6 type  1   force =     0.00000000   -0.00000000    0.00000000
     atom    7 type  1   force =     0.00001542   -0.00001118    0.00001279
     atom    8 type  1   force =    -0.00001222    0.00000531   -0.00002228
     atom    9 type  1   force =    -0.00000000    0.00000000    0.00000000
     atom   10 type  1   force =     0.00000000   -0.00000000    0.00000000
     atom   11 type  1   force =    -0.00001418   -0.00000925   -0.00001079
     atom   12 type  1   force =     0.00001370   -0.00002336    0.00000553
     atom   13 type  1   force =     0.00000000   -0.00000000    0.00000000
     atom   14 type  1   force =    -0.00000000    0.00000000    0.00000000
     atom   15 type  1   force =    -0.00001246    0.00000884   -0.00000977
     atom   16 type  1   force =     0.00001532   -0.00000708    0.00001390
     atom   17 type  1   force =     0.00000000   -0.00000000    0.00000000
     atom   18 type  1   force =    -0.00000000    0.00000000    0.00000000
     atom   19 type  1   force =     0.00000101    0.00003266   -0.00001389
     atom   20 type  1   force =     0.00000141    0.00000102    0.00001647
     atom   21 type  1   force =     0.00000000   -0.00000000    0.00000000
     atom   22 type  1   force =    -0.00000000    0.00000000    0.00000000
     atom   23 type  1   force =     0.00002559   -0.00000276    0.00000448
     atom   24 type  1   force =    -0.00002749   -0.00000144   -0.00001428
     atom   25 type  1   force =    -0.00000000    0.00000000    0.00000000
     atom   26 type  1   force =     0.00000000   -0.00000000    0.00000000
     atom   27 type  1   force =     0.00002783   -0.00001771    0.00000673
     atom   28 type  1   force =    -0.00002665   -0.00001789   -0.00001347
     atom   29 type  1   force =    -0.00000000    0.00000000    0.00000000
     atom   30 type  1   force =     0.00000000   -0.00000000    0.00000000
     atom   31 type  1   force =    -0.00000011    0.00001780   -0.00000991
     atom   32 type  1   force =    -0.00000351   -0.00001353    0.00001535
     atom   33 type  1   force =     0.00000000    0.00000000   -0.00000000
     atom   34 type  1   force =    -0.00000000    0.00000000   -0.00000000
     atom   35 type  1   force =    -0.00001404    0.00001584   -0.00000813
     atom   36 type  1   force =     0.00001375   -0.00000368   -0.00000060
     atom   37 type  1   force =     0.00000000    0.00000000    0.00000000
     atom   38 type  1   force =    -0.00000000    0.00000000   -0.00000000
     atom   39 type  1   force =     0.00000676   -0.00000174   -0.00001156
     atom   40 type  1   force =    -0.00000725    0.00000329   -0.00001069
     atom   41 type  1   force =    -0.00000000    0.00000000   -0.00000000
     atom   42 type  1   force =     0.00000000   -0.00000000    0.00000000
     atom   43 type  1   force =     0.00001617   -0.00001542    0.00000029
     atom   44 type  1   force =    -0.00001667    0.00000371   -0.00002111
     atom   45 type  1   force =    -0.00000000    0.00000000   -0.00000000
     atom   46 type  1   force =     0.00000000   -0.00000000    0.00000000
     atom   47 type  1   force =    -0.00000535    0.00000334    0.00000488
     atom   48 type  1   force =     0.00000491   -0.00000530   -0.00001014
     atom   49 type  1   force =    -0.00000000    0.00000000   -0.00000000
     atom   50 type  1   force =     0.00000000   -0.00000000   -0.00000000
     atom   51 type  1   force =    -0.00000197    0.00001171   -0.00000371
     atom   52 type  1   force =     0.00000165    0.00000043   -0.00000599
     atom   53 type  1   force =     0.00000000    0.00000000    0.00000000
     atom   54 type  1   force =    -0.00000000    0.00000000   -0.00000000
     atom   55 type  1   force =    -0.00001200    0.00001165   -0.00002207
     atom   56 type  1   force =     0.00001165   -0.00001020   -0.00000123
     atom   57 type  1   force =     0.00000000   -0.00000000    0.00000000
     atom   58 type  1   force =    -0.00000000    0.00000000   -0.00000000
     atom   59 type  1   force =     0.00001021   -0.00000698   -0.00001519
     atom   60 type  1   force =    -0.00000994   -0.00000407   -0.00000362
[...]
     atom   65 type  2   force =     0.00000164   -0.00000102    0.00001148
     atom   66 type  2   force =     0.00000019   -0.00000013    0.00000186
     atom   67 type  2   force =    -0.00000280   -0.00000428   -0.00000120
     atom   68 type  2   force =     0.00000230    0.00000457   -0.00000123
     atom   69 type  2   force =     0.00000304    0.00000623   -0.00000302
     atom   70 type  2   force =    -0.00000387   -0.00000575   -0.00000301
     atom   71 type  2   force =    -0.00000016    0.00000009   -0.00000216
     atom   72 type  3   force =     0.00000165   -0.00000107    0.00001228
     atom   73 type  3   force =    -0.00000069    0.00000038   -0.00000559
     atom   74 type  4   force =     0.00000021    0.00000031   -0.00000050
     atom   75 type  4   force =    -0.00000016   -0.00000033   -0.00000050
     atom   76 type  4   force =    -0.00000070   -0.00000133    0.00000034
     atom   77 type  4   force =     0.00000078    0.00000128    0.00000030
     atom   78 type  4   force =     0.00000018    0.00000027   -0.00000002
     atom   79 type  4   force =    -0.00000015   -0.00000029   -0.00000002

     Total force =     0.055695     Total SCF correction =     0.000129

     Computing stress (Cartesian axis) and pressure

     negative rho (up, down):  3.653E-02 0.000E+00
          total   stress  (Ry/bohr**3)                   (kbar)     P=     -301.32
  -0.00205329  -0.00000137  -0.00000004         -302.05       -0.20       -0.01
  -0.00000137  -0.00205490  -0.00000032           -0.20     -302.29       -0.05
  -0.00000004  -0.00000032  -0.00203686           -0.01       -0.05     -299.63

     kinetic stress (kbar)  17267.06    -27.53    -11.24
                              -27.53  17235.07      6.55
                              -11.24      6.55  17286.60

     local   stress (kbar)**********   -741.95   -515.02
                             -741.95**********    304.45
                             -515.02    304.451517886.81

     nonloc. stress (kbar)  -1883.22      1.72      1.40
                                1.72  -1881.23     -0.83
                                1.40     -0.83  -1931.96

     hartree stress (kbar) 787379.32    278.87    203.98
                              278.87 787702.91   -120.55
                              203.98   -120.55-711998.90

     exc-cor stress (kbar)  -8418.48      1.30      0.67
                                1.30  -8416.97     -0.39
                                0.67     -0.39  -8424.96

     corecor stress (kbar)    -80.35     -0.64     -0.34
                               -0.64    -81.10      0.20
                               -0.34      0.20    -81.77

     ewald   stress (kbar) 707055.24    488.03    320.55
                              488.03 707621.88   -189.48
                              320.55   -189.48-813035.45

     hubbard stress (kbar)      0.00      0.00      0.00
                                0.00      0.00      0.00
                                0.00      0.00      0.00

     DFT-D   stress (kbar)      0.00      0.00      0.00
                                0.00      0.00      0.00
                                0.00      0.00      0.00

     XDM     stress (kbar)      0.00      0.00      0.00
                                0.00      0.00      0.00
                                0.00      0.00      0.00

     dft-nl  stress (kbar)      0.00      0.00      0.00
                                0.00      0.00      0.00
                                0.00      0.00      0.00

     TS-vdW  stress (kbar)      0.00      0.00      0.00
                                0.00      0.00      0.00
                                0.00      0.00      0.00

     MDB     stress (kbar)      0.00      0.00      0.00
                                0.00      0.00      0.00
                                0.00      0.00      0.00

     3D-RISM stress (kbar)      0.00      0.00      0.00
                                0.00      0.00      0.00
                                0.00      0.00      0.00

     Writing all to output data dir ./tmp/Zn002_4x4x2_primitive_14Avacumn_topsite_upright_ABN.save/ :
     XML data file, charge density, pseudopotentials, collected wavefunctions

     General routines

     Parallel routines

     PAW routines

   This run was terminated on:   6:13:18  25Mar2025

   JOB DONE.
Note: The following floating-point exceptions are signalling: IEEE_DENORMAL
Note: The following floating-point exceptions are signalling: IEEE_DENORMAL
Note: The following floating-point exceptions are signalling: IEEE_DENORMAL
Note: The following floating-point exceptions are signalling: IEEE_DENORMAL
Note: The following floating-point exceptions are signalling: IEEE_DENORMAL
Note: The following floating-point exceptions are signalling: IEEE_DENORMAL
Note: The following floating-point exceptions are signalling: IEEE_DENORMAL
Note: The following floating-point exceptions are signalling: IEEE_DENORMAL
Note: The following floating-point exceptions are signalling: IEEE_DENORMAL
Note: The following floating-point exceptions are signalling: IEEE_DENORMAL
Note: The following floating-point exceptions are signalling: IEEE_DENORMAL
Note: The following floating-point exceptions are signalling: IEEE_DENORMAL