     Program PWSCF v.7.3.1 starts on 29Mar2025 at  2:41:56

     Waiting for input...
     Reading input from standard input
Warning: card &CELL ignored
Warning: card   CELL_DOFREE = 'ALL' ignored
Warning: card / ignored

     Current dimensions of program PWSCF are:
     Max number of different atomic species (ntypx) = 10
     Max number of k-points (npk) =  40000
     Max angular momentum in pseudopotentials (lmaxx) =  4
     file O.pbe-n-kjpaw_psl.0.1.UPF: wavefunction(s)  2P renormalized

     R & G space division:  proc/nbgrp/npool/nimage =      34
     Subspace diagonalization in iterative solution of the eigenvalue problem:
     one sub-group per band group will be used

     Using Slab Decomposition

     bravais-lattice index     =            0
     lattice parameter (alat)  =      19.7617  a.u.
     unit-cell volume          =   15176.5939 (a.u.)^3
     number of atoms/cell      =           51
     number of atomic types    =            3
     number of electrons       =       968.00
     number of Kohn-Sham states=          581
     kinetic-energy cutoff     =      40.0000  Ry
     charge density cutoff     =     280.0000  Ry
     scf convergence threshold =      1.0E-06
     mixing beta               =       0.4000
     number of iterations used =            8  plain     mixing
     energy convergence thresh.=      1.0E-05
     force convergence thresh. =      5.0E-04
     Exchange-correlation= PBE
                           (   1   4   3   4   0   0   0)
     nstep                     =          100

     celldm(1)=  19.761696  celldm(2)=   0.000000  celldm(3)=   0.000000
     celldm(4)=   0.000000  celldm(5)=   0.000000  celldm(6)=   0.000000

     crystal axes: (cart. coord. in units of alat)
               a(1) = (   1.000000   0.000000   0.000000 )
               a(2) = (  -0.500000   0.866025   0.000000 )
               a(3) = (   0.000000   0.000000   2.270759 )

     reciprocal axes: (cart. coord. in units 2 pi/alat)
               b(1) = (  1.000000  0.577350 -0.000000 )
               b(2) = (  0.000000  1.154701  0.000000 )
               b(3) = (  0.000000 -0.000000  0.440381 )

     PseudoPot. # 1 for Zn read from file:
     /home/ys/qepseudo/SSSP_1.3.0_PBE_efficiency/Zn_pbe_v1.uspp.F.UPF
     MD5 check sum: df62231357ef9e81f77b2b3087fa5675
     Pseudo is Ultrasoft, Zval = 20.0
     Generated by new atomic code, or converted to UPF format
     Using radial grid of  943 points,  6 beta functions with:
                l(1) =   0
                l(2) =   0
                l(3) =   1
                l(4) =   1
                l(5) =   2
                l(6) =   2
     Q(r) pseudized with  8 coefficients,  rinner =    1.100   1.100   1.100
                                                       1.100   1.100

     PseudoPot. # 2 for O  read from file:
     /home/ys/qepseudo/SSSP_1.3.0_PBE_efficiency/O.pbe-n-kjpaw_psl.0.1.UPF
     MD5 check sum: 0234752ac141de4415c5fc33072bef88
     Pseudo is Projector augmented-wave + core cor, Zval =  6.0
     Generated using "atomic" code by A. Dal Corso  v.5.0.99 svn rev. 10869
     Shape of augmentation charge: BESSEL
     Using radial grid of 1095 points,  4 beta functions with:
                l(1) =   0
                l(2) =   0
                l(3) =   1
                l(4) =   1
     Q(r) pseudized with 0 coefficients

     PseudoPot. # 3 for H  read from file:
     /home/ys/qepseudo/SSSP_1.3.0_PBE_efficiency/H.pbe-rrkjus_psl.1.0.0.UPF
     MD5 check sum: f52b6d4d1c606e5624b1dc7b2218f220
     Pseudo is Ultrasoft, Zval =  1.0
     Generated using "atomic" code by A. Dal Corso  v.5.1
     Using radial grid of  929 points,  2 beta functions with:
                l(1) =   0
                l(2) =   0
     Q(r) pseudized with 0 coefficients

     atomic species   valence    mass     pseudopotential
     Zn               20.00    65.38000     Zn( 1.00)
     O                 6.00    15.99940     O ( 1.00)
     H                 1.00     1.00794     H ( 1.00)

     No symmetry found

                                    s                        frac. trans.

      isym =  1     identity

 cryst.   s( 1) = (     1          0          0      )
                  (     0          1          0      )
                  (     0          0          1      )

 cart.    s( 1) = (  1.0000000  0.0000000  0.0000000 )
                  (  0.0000000  1.0000000  0.0000000 )
                  (  0.0000000  0.0000000  1.0000000 )

   Cartesian axes

     site n.     atom                  positions (alat units)
         1        Zn     tau(   1) = (   0.0000000   0.1443375   0.1164998  )
         2        Zn     tau(   2) = (   0.5000000   0.1443375   0.1164998  )
         3        Zn     tau(   3) = (  -0.0000009   0.1443253   0.5892328  )
         4        Zn     tau(   4) = (   0.5000057   0.1444331   0.5893457  )
         5        Zn     tau(   5) = (  -0.1250000   0.3608439   0.1164998  )
         6        Zn     tau(   6) = (   0.3750000   0.3608439   0.1164998  )
         7        Zn     tau(   7) = (  -0.1250605   0.3609005   0.5892520  )
         8        Zn     tau(   8) = (   0.3750667   0.3609476   0.5892409  )
         9        Zn     tau(   9) = (  -0.2500000   0.5773502   0.1164998  )
        10        Zn     tau(  10) = (   0.2500000   0.5773502   0.1164998  )
        11        Zn     tau(  11) = (  -0.2500929   0.5773056   0.5892190  )
        12        Zn     tau(  12) = (   0.2500864   0.5773127   0.5892873  )
        13        Zn     tau(  13) = (  -0.3750000   0.7938567   0.1164998  )
        14        Zn     tau(  14) = (   0.1250000   0.7938567   0.1164998  )
        15        Zn     tau(  15) = (  -0.3750348   0.7937470   0.5892089  )
        16        Zn     tau(  16) = (   0.1250330   0.7938041   0.5893866  )
        17        Zn     tau(  17) = (   0.2500000   0.1443375   0.1164998  )
        18        Zn     tau(  18) = (   0.7500000   0.1443375   0.1164998  )
        19        Zn     tau(  19) = (   0.2499793   0.1443524   0.5892478  )
        20        Zn     tau(  20) = (   0.7500154   0.1444015   0.5893369  )
        21        Zn     tau(  21) = (   0.1250000   0.3608439   0.1164998  )
        22        Zn     tau(  22) = (   0.6250000   0.3608439   0.1164998  )
        23        Zn     tau(  23) = (   0.1250142   0.3608841   0.5892372  )
        24        Zn     tau(  24) = (   0.6249793   0.3609637   0.5892403  )
        25        Zn     tau(  25) = (   0.0000000   0.5773502   0.1164998  )
        26        Zn     tau(  26) = (   0.5000000   0.5773502   0.1164998  )
        27        Zn     tau(  27) = (  -0.0000341   0.5773050   0.5893056  )
        28        Zn     tau(  28) = (   0.5000385   0.5773111   0.5891918  )
        29        Zn     tau(  29) = (  -0.1250000   0.7938567   0.1164998  )
        30        Zn     tau(  30) = (   0.3750000   0.7938567   0.1164998  )
        31        Zn     tau(  31) = (  -0.1250706   0.7937840   0.5893112  )
        32        Zn     tau(  32) = (   0.3750688   0.7937688   0.5892851  )
        33        Zn     tau(  33) = (   0.1249499   0.0721180   0.3527750  )
        34        Zn     tau(  34) = (   0.6250516   0.0722806   0.3529955  )
        35        Zn     tau(  35) = (  -0.0001067   0.2887395   0.3528763  )
        36        Zn     tau(  36) = (   0.5001077   0.2888424   0.3530070  )
        37        Zn     tau(  37) = (  -0.1251373   0.5051229   0.3529907  )
        38        Zn     tau(  38) = (   0.3751373   0.5051749   0.3530098  )
        39        Zn     tau(  39) = (  -0.2500771   0.7215201   0.3528974  )
        40        Zn     tau(  40) = (   0.2500778   0.7216345   0.3529906  )
        41        Zn     tau(  41) = (   0.3750658   0.0722199   0.3528654  )
        42        Zn     tau(  42) = (   0.8749310   0.0721759   0.3529169  )
        43        Zn     tau(  43) = (   0.2501013   0.2887983   0.3528633  )
        44        Zn     tau(  44) = (   0.7498955   0.2887831   0.3530222  )
        45        Zn     tau(  45) = (   0.1250465   0.5051922   0.3529544  )
        46        Zn     tau(  46) = (   0.6249532   0.5051087   0.3530488  )
        47        Zn     tau(  47) = (   0.0000130   0.7216316   0.3529497  )
        48        Zn     tau(  48) = (   0.4999851   0.7215192   0.3529316  )
        49        O      tau(  49) = (   0.3727026   0.3855520   0.8407751  )
        50        H      tau(  50) = (   0.3693040   0.4781029   0.8475745  )
        51        H      tau(  51) = (   0.2838220   0.3590195   0.8451656  )

     DFT-D3 Dispersion Correction (3-body terms):
       Reference C6 values for interpolation:

         atom   Coordination number   C6
         H          0.912             6.05
         H          0.000            15.18
         O          0.000            31.01
         O          0.993            25.63
         O          1.989            20.74
         Zn         0.000           681.04
         Zn         1.942           306.91

       Values used:

         atom   Coordination number  R0_AB[au]  C6      C8
         Zn         6.783            3.053    306.91  23930.67
         Zn         6.780            3.053    306.91  23930.67
         Zn         6.781            3.053    306.91  23930.67
         Zn         6.781            3.053    306.91  23930.67
         Zn         6.781            3.053    306.91  23930.67
         Zn         6.782            3.053    306.91  23930.67
         Zn         6.789            3.053    306.91  23930.67
         Zn         6.905            3.053    306.91  23930.67
         Zn         6.781            3.053    306.91  23930.67
         Zn         6.779            3.053    306.91  23930.67
         Zn         6.794            3.053    306.91  23930.67
         Zn         6.793            3.053    306.91  23930.67
         Zn         6.783            3.053    306.91  23930.67
         Zn         6.778            3.053    306.91  23930.67
         Zn         6.786            3.053    306.91  23930.67
         Zn         6.777            3.053    306.91  23930.67
         Zn         6.783            3.053    306.91  23930.67
         Zn         6.780            3.053    306.91  23930.67
         Zn         6.780            3.053    306.91  23930.67
         Zn         6.782            3.053    306.91  23930.67
         Zn         6.782            3.053    306.91  23930.67
         Zn         6.781            3.053    306.91  23930.67
         Zn         6.787            3.053    306.91  23930.67
         Zn         6.799            3.053    306.91  23930.67
         Zn         6.779            3.053    306.91  23930.67
         Zn         6.781            3.053    306.91  23930.67
         Zn         6.784            3.053    306.91  23930.67
         Zn         6.803            3.053    306.91  23930.67
         Zn         6.781            3.053    306.91  23930.67
         Zn         6.781            3.053    306.91  23930.67
         Zn         6.778            3.053    306.91  23930.67
         Zn         6.785            3.053    306.91  23930.67
         Zn         8.381            3.053    306.91  23930.67
         Zn         8.381            3.053    306.91  23930.67
[...]
     atom   46 type  1   force =     0.00000000    0.00000000    0.00000000
     atom   47 type  1   force =     0.00000000    0.00000000    0.00000000
     atom   48 type  1   force =     0.00000000    0.00000000    0.00000000
     atom   49 type  2   force =     0.00000000    0.00000000    0.00000000
     atom   50 type  3   force =     0.00000000    0.00000000    0.00000000
     atom   51 type  3   force =     0.00000000    0.00000000    0.00000000
     The SCF correction term to forces
     atom    1 type  1   force =    -0.00000000    0.00000000    0.00000000
     atom    2 type  1   force =     0.00000000    0.00000000   -0.00000000
     atom    3 type  1   force =    -0.00007619    0.00002716    0.00001394
     atom    4 type  1   force =     0.00008111    0.00001248    0.00006719
     atom    5 type  1   force =    -0.00000000    0.00000000    0.00000000
     atom    6 type  1   force =     0.00000000    0.00000000   -0.00000000
     atom    7 type  1   force =    -0.00002269    0.00002277   -0.00002517
     atom    8 type  1   force =     0.00004212    0.00008376    0.00012574
     atom    9 type  1   force =     0.00000000   -0.00000000    0.00000000
     atom   10 type  1   force =    -0.00000000    0.00000000    0.00000000
     atom   11 type  1   force =     0.00000956   -0.00006008   -0.00002642
     atom   12 type  1   force =    -0.00002349    0.00004238   -0.00000167
     atom   13 type  1   force =    -0.00000000   -0.00000000    0.00000000
     atom   14 type  1   force =     0.00000000   -0.00000000    0.00000000
     atom   15 type  1   force =    -0.00004355   -0.00005642    0.00000919
     atom   16 type  1   force =     0.00005003   -0.00002695    0.00001427
     atom   17 type  1   force =    -0.00000000   -0.00000000   -0.00000000
     atom   18 type  1   force =     0.00000000    0.00000000    0.00000000
     atom   19 type  1   force =    -0.00007352    0.00000209    0.00006004
     atom   20 type  1   force =     0.00005843    0.00004018   -0.00000896
     atom   21 type  1   force =    -0.00000000    0.00000000    0.00000000
     atom   22 type  1   force =     0.00000000    0.00000000    0.00000000
     atom   23 type  1   force =    -0.00010933    0.00004553   -0.00001196
     atom   24 type  1   force =     0.00010443    0.00005009    0.00002747
     atom   25 type  1   force =    -0.00000000   -0.00000000    0.00000000
     atom   26 type  1   force =     0.00000000    0.00000000    0.00000000
     atom   27 type  1   force =    -0.00003458   -0.00005497   -0.00000056
     atom   28 type  1   force =     0.00004013    0.00003516    0.00002596
     atom   29 type  1   force =    -0.00000000   -0.00000000   -0.00000000
     atom   30 type  1   force =     0.00000000    0.00000000    0.00000000
     atom   31 type  1   force =    -0.00000687   -0.00010029    0.00003769
     atom   32 type  1   force =     0.00000205    0.00001414   -0.00001043
     atom   33 type  1   force =    -0.00011843   -0.00003671    0.00000204
     atom   34 type  1   force =     0.00011157    0.00001542    0.00000620
     atom   35 type  1   force =    -0.00013147    0.00005402   -0.00000285
     atom   36 type  1   force =     0.00012744    0.00009058   -0.00000673
     atom   37 type  1   force =    -0.00004866   -0.00005662   -0.00000178
     atom   38 type  1   force =     0.00003684    0.00009411    0.00000473
     atom   39 type  1   force =    -0.00004588   -0.00014097    0.00000341
     atom   40 type  1   force =     0.00003223    0.00000433    0.00001219
     atom   41 type  1   force =     0.00001513   -0.00004571    0.00000704
     atom   42 type  1   force =    -0.00002422    0.00002984   -0.00000272
     atom   43 type  1   force =    -0.00006958    0.00007930    0.00001096
     atom   44 type  1   force =     0.00005652    0.00006871    0.00000779
     atom   45 type  1   force =    -0.00006822    0.00002683    0.00001208
     atom   46 type  1   force =     0.00006244    0.00000581    0.00001423
     atom   47 type  1   force =     0.00001314   -0.00010044   -0.00000686
     atom   48 type  1   force =    -0.00001329   -0.00003397    0.00001605
     atom   49 type  2   force =     0.00000410    0.00003933    0.00001189
     atom   50 type  3   force =    -0.00000024    0.00000088   -0.00000105
     atom   51 type  3   force =     0.00000096    0.00000241    0.00000078

     DFT-D3 dispersion contribution to forces:
     atom    1 type  1   force =    -0.00000671    0.00000130    0.00272221
     atom    2 type  1   force =     0.00001068   -0.00002161    0.00266898
     atom    3 type  1   force =     0.00010266    0.00006333   -0.00256471
     atom    4 type  1   force =    -0.00019728    0.00031404   -0.00249224
     atom    5 type  1   force =    -0.00000501    0.00000901    0.00270958
     atom    6 type  1   force =    -0.00000474   -0.00000206    0.00265005
     atom    7 type  1   force =     0.00003800   -0.00000801   -0.00262134
     atom    8 type  1   force =     0.00002289   -0.00013341   -0.00161707
     atom    9 type  1   force =    -0.00000148    0.00000223    0.00271797
     atom   10 type  1   force =    -0.00002184    0.00002053    0.00267770
     atom   11 type  1   force =    -0.00007192   -0.00003358   -0.00260908
     atom   12 type  1   force =     0.00025911   -0.00047138   -0.00210745
     atom   13 type  1   force =     0.00000645   -0.00000569    0.00271501
     atom   14 type  1   force =    -0.00001263   -0.00000313    0.00271420
     atom   15 type  1   force =    -0.00002523   -0.00001777   -0.00262107
     atom   16 type  1   force =     0.00003657   -0.00005060   -0.00261026
     atom   17 type  1   force =    -0.00002329   -0.00001939    0.00266533
     atom   18 type  1   force =     0.00000149   -0.00000216    0.00271365
     atom   19 type  1   force =     0.00013631    0.00044655   -0.00234879
     atom   20 type  1   force =    -0.00004560    0.00002041   -0.00265083
     atom   21 type  1   force =    -0.00002523    0.00000679    0.00268269
     atom   22 type  1   force =     0.00001744    0.00000153    0.00267363
     atom   23 type  1   force =     0.00050203    0.00008687   -0.00219434
     atom   24 type  1   force =    -0.00040685    0.00007894   -0.00241674
     atom   25 type  1   force =     0.00000009   -0.00000462    0.00273074
     atom   26 type  1   force =     0.00000746    0.00002532    0.00265767
     atom   27 type  1   force =     0.00014682   -0.00008388   -0.00249111
     atom   28 type  1   force =    -0.00033193   -0.00034706   -0.00229492
     atom   29 type  1   force =    -0.00000444   -0.00000522    0.00271063
     atom   30 type  1   force =    -0.00000754   -0.00000460    0.00272773
     atom   31 type  1   force =     0.00000079    0.00004764   -0.00264434
     atom   32 type  1   force =    -0.00000039   -0.00018179   -0.00249282
     atom   33 type  1   force =    -0.00002074   -0.00004560    0.00000129
     atom   34 type  1   force =     0.00002591   -0.00002340    0.00001403
     atom   35 type  1   force =    -0.00002240   -0.00000011    0.00005455
     atom   36 type  1   force =     0.00007102   -0.00004611   -0.00032871
     atom   37 type  1   force =    -0.00001494    0.00004495   -0.00005738
     atom   38 type  1   force =     0.00001729    0.00010621   -0.00017651
     atom   39 type  1   force =     0.00004127   -0.00000941   -0.00004489
     atom   40 type  1   force =    -0.00001842    0.00002841    0.00003551
     atom   41 type  1   force =    -0.00000171    0.00004594    0.00014455
     atom   42 type  1   force =     0.00000870   -0.00000253   -0.00004407
     atom   43 type  1   force =    -0.00007522   -0.00005685   -0.00023873
     atom   44 type  1   force =     0.00003712   -0.00000503    0.00001688
     atom   45 type  1   force =     0.00003616   -0.00001587    0.00017116
     atom   46 type  1   force =    -0.00004050   -0.00001363    0.00015339
     atom   47 type  1   force =    -0.00004315    0.00000044   -0.00005495
     atom   48 type  1   force =     0.00003368    0.00004600    0.00002003
     atom   49 type  2   force =    -0.00000995    0.00003158   -0.00119113
     atom   50 type  3   force =     0.00000332    0.00021277   -0.00137328
     atom   51 type  3   force =    -0.00012411   -0.00002628   -0.00146239

     Total force =     0.001567     Total SCF correction =     0.000529

     DFT-D3 dispersion Force =     0.014787
     SCF correction compared to forces is large: reduce conv_thr to get better values

     Computing stress (Cartesian axis) and pressure

     negative rho (up, down):  5.638E-03 0.000E+00
          total   stress  (Ry/bohr**3)                   (kbar)     P=       -8.79
  -0.00008846   0.00000024  -0.00000070          -13.01        0.04       -0.10
   0.00000024  -0.00008838   0.00000020            0.04      -13.00        0.03
  -0.00000070   0.00000020  -0.00000249           -0.10        0.03       -0.37

     kinetic stress (kbar)  12571.84     -5.85      3.07
                               -5.85  12569.83     -0.44
                                3.07     -0.44  12667.81

     local   stress (kbar)**********    -17.20     51.89
                              -17.20**********    -50.14
                               51.89    -50.141238805.62

     nonloc. stress (kbar)  -1286.11      0.03      0.09
                                0.03  -1286.16      0.03
                                0.09      0.03  -1328.94

     hartree stress (kbar) 639187.10      3.73    -20.30
                                3.73 639186.49     21.26
                              -20.30     21.26-583263.48

     exc-cor stress (kbar)  -6304.39      0.07     -0.04
                                0.07  -6304.37      0.01
                               -0.04      0.01  -6313.68

     corecor stress (kbar)     -4.11      0.01     -0.01
                                0.01     -4.11      0.00
                               -0.01      0.00     -4.15

     ewald   stress (kbar) 580715.90     19.24    -34.81
                               19.24 580719.86     29.30
                              -34.81     29.30-660559.41

     hubbard stress (kbar)      0.00      0.00      0.00
                                0.00      0.00      0.00
                                0.00      0.00      0.00

     DFT-D   stress (kbar)    -10.26     -0.00     -0.00
                               -0.00    -10.25      0.01
                               -0.00      0.01     -4.13

     XDM     stress (kbar)      0.00      0.00      0.00
                                0.00      0.00      0.00
                                0.00      0.00      0.00

     dft-nl  stress (kbar)      0.00      0.00      0.00
                                0.00      0.00      0.00
                                0.00      0.00      0.00

     TS-vdW  stress (kbar)      0.00      0.00      0.00
                                0.00      0.00      0.00
                                0.00      0.00      0.00

     MDB     stress (kbar)      0.00      0.00      0.00
                                0.00      0.00      0.00
                                0.00      0.00      0.00

     3D-RISM stress (kbar)      0.00      0.00      0.00
                                0.00      0.00      0.00
                                0.00      0.00      0.00

     Energy error            =      6.0E-06 Ry
     Gradient error          =      4.9E-04 Ry/Bohr

     bfgs converged in  40 scf cycles and  39 bfgs steps
     (criteria: energy <  1.0E-05 Ry, force <  5.0E-04 Ry/Bohr)

     End of BFGS Geometry Optimization

     Final energy             =  -22199.1088874439 Ry

     File ./tmp/Zn002_3layer_H2O_relax.bfgs deleted, as requested
Begin final coordinates

ATOMIC_POSITIONS (angstrom)
Zn               0.0000000000        1.5094010000        1.2182900000    0   0   0
Zn               5.2287200000        1.5094010000        1.2182900000    0   0   0
Zn               0.0075036383        1.5067951176        6.1586864631
Zn               5.2318949636        1.5148688368        6.1424062686
Zn              -1.3071800000        3.7735030000        1.2182900000    0   0   0
Zn               3.9215400000        3.7735030000        1.2182900000    0   0   0
Zn              -1.3016252462        3.7708573389        6.1553674123
Zn               3.9323899395        3.7638878802        6.4633565027
Zn              -2.6143600000        6.0376050000        1.2182900000    0   0   0
Zn               2.6143600000        6.0376050000        1.2182900000    0   0   0
Zn              -2.6076856131        6.0352391644        6.1543632528
Zn               2.6241167666        6.0319913511        6.1074632336
Zn              -3.9215400000        8.3017080000        1.2182900000    0   0   0
Zn               1.3071800000        8.3017080000        1.2182900000    0   0   0
Zn              -3.9144680299        8.2991961769        6.1551158382
Zn               1.3135062338        8.2992922187        6.1559861849
Zn               2.6143600000        1.5094010000        1.2182900000    0   0   0
Zn               7.8430800000        1.5094010000        1.2182900000    0   0   0
Zn               2.6243834575        1.5140055024        6.1345415449
Zn               7.8482689405        1.5072747373        6.1549100666
Zn               1.3071800000        3.7735030000        1.2182900000    0   0   0
Zn               6.5359000000        3.7735030000        1.2182900000    0   0   0
Zn               1.3193316576        3.7716877449        6.1101038681
Zn               6.5341240580        3.7720391762        6.1424770568
Zn               0.0000000000        6.0376050000        1.2182900000    0   0   0
Zn               5.2287200000        6.0376050000        1.2182900000    0   0   0
Zn               0.0063585033        6.0351101690        6.1605537464
Zn               5.2319856509        6.0294944118        6.1202367203
Zn              -1.3071800000        8.3017080000        1.2182900000    0   0   0
Zn               3.9215400000        8.3017080000        1.2182900000    0   0   0
Zn              -1.2999997132        8.3000402272        6.1539296330
Zn               3.9287360317        8.2991660371        6.1618376920
Zn               1.3124146954        0.7566157350        3.6881833632
Zn               6.5398679892        0.7570306829        3.6872677459
Zn               0.0057883854        3.0167958959        3.6892514337
Zn               5.2285353198        3.0214213029        3.6854563217
Zn              -1.3023517587        5.2849426400        3.6819880003
Zn               3.9270759593        5.2755458326        3.6960718188
Zn              -2.6080292643        7.5465442454        3.6817899625
Zn               2.6212885509        7.5477049367        3.6873135992
Zn               3.9265137649        0.7569428180        3.6918901230
Zn               9.1555727558        0.7546053670        3.6810999752
Zn               2.6255595373        3.0209127969        3.6898684977
Zn               7.8456213612        3.0181286456        3.6882413739
Zn               1.3122779121        5.2830096208        3.6837092420
Zn               6.5392234403        5.2818476734        3.6904228095
Zn               0.0032888654        7.5465594037        3.6827430617
Zn               5.2321049678        7.5470273925        3.6900147947
O                3.7829416667        3.9945320299        8.9180088483
H                3.8371926765        4.9686367919        8.9361929752
H                2.8349119282        3.8029029795        9.0417607180
End final coordinates

     Writing all to output data dir ./tmp/Zn002_3layer_H2O_relax.save/ :
     XML data file, charge density, pseudopotentials, collected wavefunctions

     General routines

     Parallel routines

     PAW routines

   This run was terminated on:   4:34: 3  30Mar2025

   JOB DONE.
Note: The following floating-point exceptions are signalling: IEEE_DENORMAL
Note: The following floating-point exceptions are signalling: IEEE_DENORMAL
Note: The following floating-point exceptions are signalling: IEEE_DENORMAL
Note: The following floating-point exceptions are signalling: IEEE_DENORMAL
Note: The following floating-point exceptions are signalling: IEEE_DENORMAL
Note: The following floating-point exceptions are signalling: IEEE_DENORMAL
Note: The following floating-point exceptions are signalling: IEEE_DENORMAL
Note: The following floating-point exceptions are signalling: IEEE_DENORMAL
Note: The following floating-point exceptions are signalling: IEEE_DENORMAL
Note: The following floating-point exceptions are signalling: IEEE_DENORMAL
Note: The following floating-point exceptions are signalling: IEEE_DENORMAL
Note: The following floating-point exceptions are signalling: IEEE_DENORMAL