     Program PWSCF v.7.3.1 starts on 16Mar2025 at 16:43:15

     Waiting for input...
     Reading input from standard input
Warning: card &CELL ignored
Warning: card   CELL_DOFREE = 'ALL' ignored
Warning: card / ignored

     Current dimensions of program PWSCF are:
     Max number of different atomic species (ntypx) = 10
     Max number of k-points (npk) =  40000
     Max angular momentum in pseudopotentials (lmaxx) =  4
     file C.pbe-n-kjpaw_psl.1.0.0.UPF: wavefunction(s)  2S 2P renormalized

     R & G space division:  proc/nbgrp/npool/nimage =      30
     Subspace diagonalization in iterative solution of the eigenvalue problem:
     one sub-group per band group will be used

     Using Slab Decomposition

     bravais-lattice index     =            0
     lattice parameter (alat)  =      18.4179  a.u.
     unit-cell volume          =    7929.1084 (a.u.)^3
     number of atoms/cell      =           47
     number of atomic types    =            4
     number of electrons       =       684.00
     number of Kohn-Sham states=          410
     kinetic-energy cutoff     =      30.0000  Ry
     charge density cutoff     =     120.0000  Ry
     scf convergence threshold =      7.3E-07
     mixing beta               =       0.7000
     number of iterations used =            8  plain     mixing
     energy convergence thresh.=      1.0E-05
     force convergence thresh. =      5.0E-04
     Exchange-correlation= PBE
                           (   1   4   3   4   0   0   0)
     nstep                     =          100

     celldm(1)=  18.417879  celldm(2)=   0.000000  celldm(3)=   0.000000
     celldm(4)=   0.000000  celldm(5)=   0.000000  celldm(6)=   0.000000

     crystal axes: (cart. coord. in units of alat)
               a(1) = (   1.000000   0.000000   0.000000 )
               a(2) = (   0.000000   0.536481   0.000000 )
               a(3) = (   0.000000  -1.365810   2.365652 )

     reciprocal axes: (cart. coord. in units 2 pi/alat)
               b(1) = (  1.000000  0.000000 -0.000000 )
               b(2) = ( -0.000000  1.863998  1.076180 )
               b(3) = (  0.000000  0.000000  0.422716 )

     PseudoPot. # 1 for Zn read from file:
     /home/ys/qepseudo/SSSP_1.3.0_PBE_efficiency/Zn_pbe_v1.uspp.F.UPF
     MD5 check sum: df62231357ef9e81f77b2b3087fa5675
     Pseudo is Ultrasoft, Zval = 20.0
     Generated by new atomic code, or converted to UPF format
     Using radial grid of  943 points,  6 beta functions with:
                l(1) =   0
                l(2) =   0
                l(3) =   1
                l(4) =   1
                l(5) =   2
                l(6) =   2
     Q(r) pseudized with  8 coefficients,  rinner =    1.100   1.100   1.100
                                                       1.100   1.100

     PseudoPot. # 2 for C  read from file:
     /home/ys/qepseudo/SSSP_1.3.0_PBE_efficiency/C.pbe-n-kjpaw_psl.1.0.0.UPF
     MD5 check sum: 5d2aebdfa2cae82b50a7e79e9516da0f
     Pseudo is Projector augmented-wave + core cor, Zval =  4.0
     Generated using "atomic" code by A. Dal Corso  v.5.1
     Shape of augmentation charge: PSQ
     Using radial grid of 1073 points,  4 beta functions with:
                l(1) =   0
                l(2) =   0
                l(3) =   1
                l(4) =   1
     Q(r) pseudized with 0 coefficients

     PseudoPot. # 3 for N  read from file:
     /home/ys/qepseudo/SSSP_1.3.0_PBE_efficiency/N.pbe-n-radius_5.UPF
     MD5 check sum: 16739722b17309cd8fe442a2ace49922
     Pseudo is Ultrasoft + core correction, Zval =  5.0
     Generated using "atomic" code by A. Dal Corso  v.5.1
     Using radial grid of 1085 points,  4 beta functions with:
                l(1) =   0
                l(2) =   0
                l(3) =   1
                l(4) =   1
     Q(r) pseudized with 0 coefficients

     PseudoPot. # 4 for H  read from file:
     /home/ys/qepseudo/SSSP_1.3.0_PBE_efficiency/H.pbe-rrkjus_psl.1.0.0.UPF
     MD5 check sum: f52b6d4d1c606e5624b1dc7b2218f220
     Pseudo is Ultrasoft, Zval =  1.0
     Generated using "atomic" code by A. Dal Corso  v.5.1
     Using radial grid of  929 points,  2 beta functions with:
                l(1) =   0
                l(2) =   0
     Q(r) pseudized with 0 coefficients

     atomic species   valence    mass     pseudopotential
     Zn               20.00    65.38000     Zn( 1.00)
     C                 4.00    12.01070     C ( 1.00)
     N                 5.00    14.00670     N ( 1.00)
     H                 1.00     1.00800     H ( 1.00)

     No symmetry found

                                    s                        frac. trans.

      isym =  1     identity

 cryst.   s( 1) = (     1          0          0      )
                  (     0          1          0      )
                  (     0          0          1      )

 cart.    s( 1) = (  1.0000000  0.0000000  0.0000000 )
                  (  0.0000000  1.0000000 -0.0000000 )
                  (  0.0000000  0.0000000  1.0000000 )

   Cartesian axes

     site n.     atom                  positions (alat units)
         1        Zn     tau(   1) = (   0.1250000   0.1341203   0.0774344  )
         2        Zn     tau(   2) = (   0.1250000   0.0000000   0.3097376  )
         3        Zn     tau(   3) = (   0.1252274  -0.1341230   0.5810209  )
         4        Zn     tau(   4) = (   0.1252343  -0.2682335   0.8536748  )
         5        Zn     tau(   5) = (   0.1250000   0.4023610   0.0774344  )
         6        Zn     tau(   6) = (   0.1250000   0.2682407   0.3097376  )
         7        Zn     tau(   7) = (   0.1252273   0.1341177   0.5810211  )
         8        Zn     tau(   8) = (   0.1252343   0.0000071   0.8536747  )
         9        Zn     tau(   9) = (   0.6250000   0.1341203   0.0774344  )
        10        Zn     tau(  10) = (   0.6250000   0.0000000   0.3097376  )
        11        Zn     tau(  11) = (   0.6247544  -0.1341232   0.5808336  )
        12        Zn     tau(  12) = (   0.6247716  -0.2682336   0.8536785  )
        13        Zn     tau(  13) = (   0.6250000   0.4023610   0.0774344  )
        14        Zn     tau(  14) = (   0.6250000   0.2682407   0.3097376  )
        15        Zn     tau(  15) = (   0.6247545   0.1341174   0.5808334  )
        16        Zn     tau(  16) = (   0.6247717   0.0000071   0.8536785  )
        17        Zn     tau(  17) = (   0.3750000  -0.0000000   0.1548688  )
        18        Zn     tau(  18) = (   0.3750000  -0.1341203   0.3871721  )
        19        Zn     tau(  19) = (   0.3749045  -0.2682370   0.6231456  )
        20        Zn     tau(  20) = (   0.3748936  -0.4023530   0.8690866  )
        21        Zn     tau(  21) = (   0.3750000   0.2682407   0.1548688  )
        22        Zn     tau(  22) = (   0.3750000   0.1341203   0.3871721  )
        23        Zn     tau(  23) = (   0.3749046   0.0000037   0.6231455  )
        24        Zn     tau(  24) = (   0.3748935  -0.1341123   0.8690865  )
        25        Zn     tau(  25) = (   0.8750000  -0.0000000   0.1548688  )
        26        Zn     tau(  26) = (   0.8750000  -0.1341203   0.3871721  )
        27        Zn     tau(  27) = (   0.8750648  -0.2682369   0.6230150  )
        28        Zn     tau(  28) = (   0.8751138  -0.4023527   0.8691801  )
        29        Zn     tau(  29) = (   0.8750000   0.2682407   0.1548688  )
        30        Zn     tau(  30) = (   0.8750000   0.1341203   0.3871721  )
        31        Zn     tau(  31) = (   0.8750650   0.0000037   0.6230149  )
        32        Zn     tau(  32) = (   0.8751139  -0.1341120   0.8691802  )
        33        C      tau(  33) = (   0.3731961  -0.1526142   1.8010181  )
        34        C      tau(  34) = (   0.3714046  -0.1482256   1.6576088  )
        35        C      tau(  35) = (   0.4560672  -0.0561241   1.5849860  )
        36        C      tau(  36) = (   0.2848736  -0.2362060   1.5819499  )
        37        C      tau(  37) = (   0.2829128  -0.2321608   1.4397832  )
        38        C      tau(  38) = (   0.4542690  -0.0520688   1.4429647  )
        39        C      tau(  39) = (   0.3679370  -0.1401481   1.3679576  )
        40        N      tau(  40) = (   0.3747718  -0.1561070   1.9260670  )
        41        N      tau(  41) = (   0.3656743  -0.1357566   1.2298072  )
        42        H      tau(  42) = (   0.3034994  -0.1993140   1.1721587  )
        43        H      tau(  43) = (   0.4268410  -0.0690632   1.1743634  )
        44        H      tau(  44) = (   0.5236034   0.0128485   1.6420429  )
        45        H      tau(  45) = (   0.2186302  -0.3084901   1.6366417  )
        46        H      tau(  46) = (   0.2150186  -0.3015475   1.3831073  )
        47        H      tau(  47) = (   0.5207500   0.0205859   1.3885215  )

   Crystallographic axes

     site n.     atom                  positions (cryst. coord.)
         1        Zn     tau(   1) = (  0.1250000  0.3333333  0.0327328  )
         2        Zn     tau(   2) = (  0.1250000  0.3333333  0.1309312  )
         3        Zn     tau(   3) = (  0.1252274  0.3752778  0.2456071  )
         4        Zn     tau(   4) = (  0.1252343  0.4187207  0.3608623  )
         5        Zn     tau(   5) = (  0.1250000  0.8333333  0.0327328  )
         6        Zn     tau(   6) = (  0.1250000  0.8333333  0.1309312  )
         7        Zn     tau(   7) = (  0.1252273  0.8752780  0.2456071  )
         8        Zn     tau(   8) = (  0.1252343  0.9187206  0.3608623  )
         9        Zn     tau(   9) = (  0.6250000  0.3333333  0.0327328  )
        10        Zn     tau(  10) = (  0.6250000  0.3333333  0.1309312  )
        11        Zn     tau(  11) = (  0.6247544  0.3750759  0.2455279  )
        12        Zn     tau(  12) = (  0.6247716  0.4187246  0.3608639  )
        13        Zn     tau(  13) = (  0.6250000  0.8333333  0.0327328  )
        14        Zn     tau(  14) = (  0.6250000  0.8333333  0.1309312  )
        15        Zn     tau(  15) = (  0.6247545  0.8750757  0.2455278  )
        16        Zn     tau(  16) = (  0.6247717  0.9187247  0.3608639  )
        17        Zn     tau(  17) = (  0.3750000  0.1666667  0.0654656  )
        18        Zn     tau(  18) = (  0.3750000  0.1666667  0.1636640  )
        19        Zn     tau(  19) = (  0.3749045  0.1706234  0.2634138  )
        20        Zn     tau(  20) = (  0.3748936  0.1853081  0.3673772  )
        21        Zn     tau(  21) = (  0.3750000  0.6666667  0.0654656  )
        22        Zn     tau(  22) = (  0.3750000  0.6666667  0.1636640  )
        23        Zn     tau(  23) = (  0.3749046  0.6706233  0.2634138  )
        24        Zn     tau(  24) = (  0.3748935  0.6853081  0.3673771  )
        25        Zn     tau(  25) = (  0.8750000  0.1666667  0.0654656  )
        26        Zn     tau(  26) = (  0.8750000  0.1666667  0.1636640  )
        27        Zn     tau(  27) = (  0.8750648  0.1704831  0.2633587  )
        28        Zn     tau(  28) = (  0.8751138  0.1854093  0.3674167  )
        29        Zn     tau(  29) = (  0.8750000  0.6666667  0.0654656  )
        30        Zn     tau(  30) = (  0.8750000  0.6666667  0.1636640  )
        31        Zn     tau(  31) = (  0.8750650  0.6704828  0.2633586  )
[...]
     atom   25 type  1   force =     0.00000000    0.00000000    0.00000000
     atom   26 type  1   force =     0.00000000    0.00000000    0.00000000
     atom   27 type  1   force =     0.00000000    0.00000000    0.00000000
     atom   28 type  1   force =     0.00000000    0.00000000    0.00000000
     atom   29 type  1   force =     0.00000000    0.00000000    0.00000000
     atom   30 type  1   force =     0.00000000    0.00000000    0.00000000
     atom   31 type  1   force =     0.00000000    0.00000000    0.00000000
     atom   32 type  1   force =     0.00000000    0.00000000    0.00000000
     atom   33 type  2   force =    -0.00128582   -0.00091450    0.01186213
     atom   34 type  2   force =     0.00084390    0.00023673   -0.00431387
     atom   35 type  2   force =     0.00126597    0.00276104   -0.00047728
     atom   36 type  2   force =    -0.00044156   -0.00105359   -0.00402823
     atom   37 type  2   force =    -0.00121739    0.00007007    0.00254216
     atom   38 type  2   force =     0.00238793    0.00259652    0.00304076
     atom   39 type  2   force =    -0.00238357   -0.00346468   -0.00144102
     atom   40 type  3   force =     0.00022058   -0.00087653    0.01165492
     atom   41 type  3   force =    -0.00441089    0.00453578   -0.00116058
     atom   42 type  4   force =     0.00000000    0.00000000    0.00000000
     atom   43 type  4   force =     0.00000000    0.00000000    0.00000000
     atom   44 type  4   force =     0.00000000    0.00000000    0.00000000
     atom   45 type  4   force =     0.00000000    0.00000000    0.00000000
     atom   46 type  4   force =     0.00000000    0.00000000    0.00000000
     atom   47 type  4   force =     0.00000000    0.00000000    0.00000000
     The Hubbard contrib.    to forces
     atom    1 type  1   force =     0.00000000    0.00000000    0.00000000
     atom    2 type  1   force =     0.00000000    0.00000000    0.00000000
     atom    3 type  1   force =     0.00000000    0.00000000    0.00000000
     atom    4 type  1   force =     0.00000000    0.00000000    0.00000000
     atom    5 type  1   force =     0.00000000    0.00000000    0.00000000
     atom    6 type  1   force =     0.00000000    0.00000000    0.00000000
     atom    7 type  1   force =     0.00000000    0.00000000    0.00000000
     atom    8 type  1   force =     0.00000000    0.00000000    0.00000000
     atom    9 type  1   force =     0.00000000    0.00000000    0.00000000
     atom   10 type  1   force =     0.00000000    0.00000000    0.00000000
     atom   11 type  1   force =     0.00000000    0.00000000    0.00000000
     atom   12 type  1   force =     0.00000000    0.00000000    0.00000000
     atom   13 type  1   force =     0.00000000    0.00000000    0.00000000
     atom   14 type  1   force =     0.00000000    0.00000000    0.00000000
     atom   15 type  1   force =     0.00000000    0.00000000    0.00000000
     atom   16 type  1   force =     0.00000000    0.00000000    0.00000000
     atom   17 type  1   force =     0.00000000    0.00000000    0.00000000
     atom   18 type  1   force =     0.00000000    0.00000000    0.00000000
     atom   19 type  1   force =     0.00000000    0.00000000    0.00000000
     atom   20 type  1   force =     0.00000000    0.00000000    0.00000000
     atom   21 type  1   force =     0.00000000    0.00000000    0.00000000
     atom   22 type  1   force =     0.00000000    0.00000000    0.00000000
     atom   23 type  1   force =     0.00000000    0.00000000    0.00000000
     atom   24 type  1   force =     0.00000000    0.00000000    0.00000000
     atom   25 type  1   force =     0.00000000    0.00000000    0.00000000
     atom   26 type  1   force =     0.00000000    0.00000000    0.00000000
     atom   27 type  1   force =     0.00000000    0.00000000    0.00000000
     atom   28 type  1   force =     0.00000000    0.00000000    0.00000000
     atom   29 type  1   force =     0.00000000    0.00000000    0.00000000
     atom   30 type  1   force =     0.00000000    0.00000000    0.00000000
     atom   31 type  1   force =     0.00000000    0.00000000    0.00000000
     atom   32 type  1   force =     0.00000000    0.00000000    0.00000000
     atom   33 type  2   force =     0.00000000    0.00000000    0.00000000
     atom   34 type  2   force =     0.00000000    0.00000000    0.00000000
     atom   35 type  2   force =     0.00000000    0.00000000    0.00000000
     atom   36 type  2   force =     0.00000000    0.00000000    0.00000000
     atom   37 type  2   force =     0.00000000    0.00000000    0.00000000
     atom   38 type  2   force =     0.00000000    0.00000000    0.00000000
     atom   39 type  2   force =     0.00000000    0.00000000    0.00000000
     atom   40 type  3   force =     0.00000000    0.00000000    0.00000000
     atom   41 type  3   force =     0.00000000    0.00000000    0.00000000
     atom   42 type  4   force =     0.00000000    0.00000000    0.00000000
     atom   43 type  4   force =     0.00000000    0.00000000    0.00000000
     atom   44 type  4   force =     0.00000000    0.00000000    0.00000000
     atom   45 type  4   force =     0.00000000    0.00000000    0.00000000
     atom   46 type  4   force =     0.00000000    0.00000000    0.00000000
     atom   47 type  4   force =     0.00000000    0.00000000    0.00000000
     The SCF correction term to forces
     atom    1 type  1   force =    -0.00000000   -0.00000000    0.00000000
     atom    2 type  1   force =    -0.00000000   -0.00000000   -0.00000000
     atom    3 type  1   force =    -0.00002585   -0.00000154   -0.00009359
     atom    4 type  1   force =     0.00002923   -0.00000371    0.00012057
     atom    5 type  1   force =    -0.00000000    0.00000000    0.00000000
     atom    6 type  1   force =    -0.00000000    0.00000000   -0.00000000
     atom    7 type  1   force =    -0.00002515    0.00000164   -0.00009116
     atom    8 type  1   force =     0.00003315    0.00000438    0.00012144
     atom    9 type  1   force =     0.00000000   -0.00000000    0.00000000
     atom   10 type  1   force =     0.00000000   -0.00000000   -0.00000000
     atom   11 type  1   force =     0.00002504   -0.00000104   -0.00008150
     atom   12 type  1   force =    -0.00002574   -0.00000528    0.00013626
     atom   13 type  1   force =     0.00000000    0.00000000    0.00000000
     atom   14 type  1   force =     0.00000000    0.00000000   -0.00000000
     atom   15 type  1   force =     0.00002458    0.00000110   -0.00007942
     atom   16 type  1   force =    -0.00003007    0.00000611    0.00013862
     atom   17 type  1   force =    -0.00000000   -0.00000000    0.00000000
     atom   18 type  1   force =    -0.00000000   -0.00000000   -0.00000000
     atom   19 type  1   force =    -0.00003660   -0.00000365    0.00001254
     atom   20 type  1   force =    -0.00002747   -0.00000690    0.00014245
     atom   21 type  1   force =    -0.00000000    0.00000000    0.00000000
     atom   22 type  1   force =    -0.00000000    0.00000000   -0.00000000
     atom   23 type  1   force =    -0.00003622    0.00000393    0.00001468
     atom   24 type  1   force =    -0.00003013    0.00000695    0.00013923
     atom   25 type  1   force =     0.00000000   -0.00000000    0.00000000
     atom   26 type  1   force =     0.00000000   -0.00000000   -0.00000000
     atom   27 type  1   force =     0.00003811   -0.00000109   -0.00009578
     atom   28 type  1   force =     0.00002221    0.00000121    0.00012122
     atom   29 type  1   force =     0.00000000    0.00000000    0.00000000
     atom   30 type  1   force =     0.00000000    0.00000000   -0.00000000
     atom   31 type  1   force =     0.00003769    0.00000120   -0.00009653
     atom   32 type  1   force =     0.00002299   -0.00000028    0.00011896
     atom   33 type  2   force =    -0.00000587    0.00000142    0.00001228
     atom   34 type  2   force =    -0.00000674    0.00000299   -0.00000986
     atom   35 type  2   force =    -0.00000402    0.00000289   -0.00000889
     atom   36 type  2   force =    -0.00000805   -0.00000051   -0.00000890
     atom   37 type  2   force =    -0.00000685    0.00000074   -0.00000639
     atom   38 type  2   force =    -0.00000522    0.00000193   -0.00000463
     atom   39 type  2   force =    -0.00000814    0.00000225   -0.00000949
     atom   40 type  3   force =    -0.00000634    0.00000345    0.00000709
     atom   41 type  3   force =    -0.00001369    0.00000182   -0.00001202
     atom   42 type  4   force =    -0.00000041    0.00000151   -0.00000074
     atom   43 type  4   force =    -0.00000281   -0.00000041   -0.00000129
     atom   44 type  4   force =    -0.00000011    0.00000073   -0.00000116
     atom   45 type  4   force =    -0.00000108    0.00000018   -0.00000183
     atom   46 type  4   force =    -0.00000033    0.00000079   -0.00000127
     atom   47 type  4   force =    -0.00000094    0.00000033   -0.00000134

     Total force =     0.001602     Total SCF correction =     0.000448
     SCF correction compared to forces is large: reduce conv_thr to get better values

     Computing stress (Cartesian axis) and pressure

     negative rho (up, down):  1.398E-02 0.000E+00
          total   stress  (Ry/bohr**3)                   (kbar)     P=     -305.56
  -0.00210256  -0.00000397  -0.00000064         -309.30       -0.58       -0.09
  -0.00000397  -0.00215425   0.00000217           -0.58     -316.90        0.32
  -0.00000064   0.00000217  -0.00197470           -0.09        0.32     -290.49

     kinetic stress (kbar)  17051.73    -61.90     -3.05
                              -61.90  16988.14      4.65
                               -3.05      4.65  16968.69

     local   stress (kbar)**********  -1101.78   -261.02
                            -1101.78**********    194.54
                             -261.02    194.541142267.61

     nonloc. stress (kbar)  -1729.29      4.10      0.79
                                4.10  -1701.42     -0.83
                                0.79     -0.83  -1733.83

     hartree stress (kbar) 600853.60    360.54    106.58
                              360.54 610698.27    -67.56
                              106.58    -67.56-528053.93

     exc-cor stress (kbar)  -8098.08      2.99      0.30
                                2.99  -8093.76     -0.39
                                0.30     -0.39  -8095.89

     corecor stress (kbar)   -154.54     -1.67     -0.19
                               -1.67   -154.13      0.19
                               -0.19      0.19   -156.59

     ewald   stress (kbar) 520493.63    797.13    156.50
                              797.13 532974.29   -130.28
                              156.50   -130.28-621486.55

     hubbard stress (kbar)      0.00      0.00      0.00
                                0.00      0.00      0.00
                                0.00      0.00      0.00

     DFT-D   stress (kbar)      0.00      0.00      0.00
                                0.00      0.00      0.00
                                0.00      0.00      0.00

     XDM     stress (kbar)      0.00      0.00      0.00
                                0.00      0.00      0.00
                                0.00      0.00      0.00

     dft-nl  stress (kbar)      0.00      0.00      0.00
                                0.00      0.00      0.00
                                0.00      0.00      0.00

     TS-vdW  stress (kbar)      0.00      0.00      0.00
                                0.00      0.00      0.00
                                0.00      0.00      0.00

     MDB     stress (kbar)      0.00      0.00      0.00
                                0.00      0.00      0.00
                                0.00      0.00      0.00

     3D-RISM stress (kbar)      0.00      0.00      0.00
                                0.00      0.00      0.00
                                0.00      0.00      0.00

     Energy error            =      6.9E-06 Ry
     Gradient error          =      4.0E-04 Ry/Bohr

     bfgs converged in  46 scf cycles and  44 bfgs steps
     (criteria: energy <  1.0E-05 Ry, force <  5.0E-04 Ry/Bohr)

     End of BFGS Geometry Optimization

     Final energy             =  -14944.0323983718 Ry

     File ./tmp/Zn100_2x2x4_relax_ecutrho250_ecutwfc25_ABN.bfgs deleted, as requested
Begin final coordinates

ATOMIC_POSITIONS (angstrom)
Zn               1.2182902100        1.3071799410        0.7547006760    0   0   0
Zn               1.2182902100        0.0000000130        3.0188027260    0   0   0
Zn               1.2132863937       -1.3117755689        5.6717808165
Zn               1.2181332985       -2.6222875249        8.3272532965
Zn               1.2182902100        3.9215397970        0.7547006760    0   0   0
Zn               1.2182902100        2.6143598690        3.0188027260    0   0   0
Zn               1.2139811193        1.3017353794        5.6727273163
Zn               1.2187799994       -0.0074658724        8.3448473047
Zn               6.0914510490        1.3071799410        0.7547006760    0   0   0
Zn               6.0914510490        0.0000000130        3.0188027260    0   0   0
Zn               6.0906699775       -1.3126405615        5.6729078437
Zn               6.0958930976       -2.6227071144        8.3362992098
Zn               6.0914510490        3.9215397970        0.7547006760    0   0   0
Zn               6.0914510490        2.6143598690        3.0188027260    0   0   0
Zn               6.0905384099        1.3021364355        5.6717347455
Zn               6.0957023985       -0.0067564100        8.3286632221
Zn               3.6548706290       -0.0000000130        1.5094013740    0   0   0
Zn               3.6548706290       -1.3071799410        3.7735034240    0   0   0
Zn               3.6501138969       -2.6218230762        6.0677311250
Zn               3.6550161899       -3.9290502003        8.4754056182
Zn               3.6548706290        2.6143598430        1.5094013740    0   0   0
Zn               3.6548706290        1.3071799150        3.7735034240    0   0   0
Zn               3.6500675966       -0.0018254950        6.0691274687
Zn               3.6586938457       -1.3153845668        8.4239519528
Zn               8.5280314680       -0.0000000130        1.5094013740    0   0   0
Zn               8.5280314680       -1.3071799410        3.7735034240    0   0   0
Zn               8.5268208636       -2.6186196426        6.0809704573
Zn               8.5310546412       -3.9289758500        8.4845128543
Zn               8.5280314680        2.6143598430        1.5094013740    0   0   0
Zn               8.5280314680        1.3071799150        3.7735034240    0   0   0
Zn               8.5257985349       -0.0044510366        6.0803011521
Zn               8.5320372630       -1.3140173672        8.4866534285
C                3.6720762093       -1.5662591578       17.5775269104
C                3.6392878667       -1.4708633903       16.1552479463
C                4.4648450836       -0.5509595848       15.4745736575
C                2.7719774275       -2.2940799803       15.4064856483
C                2.7230916176       -2.1967054494       14.0245438015
C                4.4204570720       -0.4592868917       14.0907191634
C                3.5465632518       -1.2784326690       13.3375400854
N                3.6983249699       -1.6477767041       18.7485906907
N                3.4618393748       -1.1440475801       11.9686584452
H                3.0119426793       -1.8895981137       11.4369998411
H                4.2348446617       -0.6958401503       11.4771096397
H                5.1398066290        0.0932761509       16.0456433337
H                2.1374872396       -3.0172324482       15.9273606240
H                2.0477834182       -2.8453091656       13.4561097344
H                5.0601599312        0.2629858245       13.5721155118
End final coordinates

     Writing all to output data dir ./tmp/Zn100_2x2x4_relax_ecutrho250_ecutwfc25_ABN.save/ :
     XML data file, charge density, pseudopotentials, collected wavefunctions

     General routines

     Parallel routines

     PAW routines

   This run was terminated on:  21:45:26  16Mar2025

   JOB DONE.
Note: The following floating-point exceptions are signalling: IEEE_DENORMAL
Note: The following floating-point exceptions are signalling: IEEE_DENORMAL
Note: The following floating-point exceptions are signalling: IEEE_DENORMAL
Note: The following floating-point exceptions are signalling: IEEE_DENORMAL
Note: The following floating-point exceptions are signalling: IEEE_DENORMAL
Note: The following floating-point exceptions are signalling: IEEE_DENORMAL
Note: The following floating-point exceptions are signalling: IEEE_DENORMAL