     Program PWSCF v.7.3.1 starts on 17Mar2025 at 11:14:10

     Waiting for input...
     Reading input from standard input

     Current dimensions of program PWSCF are:
     Max number of different atomic species (ntypx) = 10
     Max number of k-points (npk) =  40000
     Max angular momentum in pseudopotentials (lmaxx) =  4
     file C.pbe-n-kjpaw_psl.1.0.0.UPF: wavefunction(s)  2S 2P renormalized

     R & G space division:  proc/nbgrp/npool/nimage =      30
     Subspace diagonalization in iterative solution of the eigenvalue problem:
     one sub-group per band group will be used

     Using Slab Decomposition

     bravais-lattice index     =            0
     lattice parameter (alat)  =       9.8808  a.u.
     unit-cell volume          =    7588.2966 (a.u.)^3
     number of atoms/cell      =           47
     number of atomic types    =            4
     number of electrons       =       684.00
     number of Kohn-Sham states=          410
     kinetic-energy cutoff     =      50.0000  Ry
     charge density cutoff     =     200.0000  Ry
     scf convergence threshold =      7.3E-07
     mixing beta               =       0.7000
     number of iterations used =            8  plain     mixing
     Exchange-correlation= PBE
                           (   1   4   3   4   0   0   0)

     celldm(1)=   9.880848  celldm(2)=   0.000000  celldm(3)=   0.000000
     celldm(4)=   0.000000  celldm(5)=   0.000000  celldm(6)=   0.000000

     crystal axes: (cart. coord. in units of alat)
               a(1) = (   1.000000   0.000000   0.000000 )
               a(2) = (  -1.000000   1.732051   0.000000 )
               a(3) = (   0.000000   0.000000   4.541517 )

     reciprocal axes: (cart. coord. in units 2 pi/alat)
               b(1) = (  1.000000  0.577350 -0.000000 )
               b(2) = (  0.000000  0.577350  0.000000 )
               b(3) = (  0.000000 -0.000000  0.220191 )

     PseudoPot. # 1 for Zn read from file:
     /home/ys/qepseudo/SSSP_1.3.0_PBE_efficiency/Zn_pbe_v1.uspp.F.UPF
     MD5 check sum: df62231357ef9e81f77b2b3087fa5675
     Pseudo is Ultrasoft, Zval = 20.0
     Generated by new atomic code, or converted to UPF format
     Using radial grid of  943 points,  6 beta functions with:
                l(1) =   0
                l(2) =   0
                l(3) =   1
                l(4) =   1
                l(5) =   2
                l(6) =   2
     Q(r) pseudized with  8 coefficients,  rinner =    1.100   1.100   1.100
                                                       1.100   1.100

     PseudoPot. # 2 for C  read from file:
     /home/ys/qepseudo/SSSP_1.3.0_PBE_efficiency/C.pbe-n-kjpaw_psl.1.0.0.UPF
     MD5 check sum: 5d2aebdfa2cae82b50a7e79e9516da0f
     Pseudo is Projector augmented-wave + core cor, Zval =  4.0
     Generated using "atomic" code by A. Dal Corso  v.5.1
     Shape of augmentation charge: PSQ
     Using radial grid of 1073 points,  4 beta functions with:
                l(1) =   0
                l(2) =   0
                l(3) =   1
                l(4) =   1
     Q(r) pseudized with 0 coefficients

     PseudoPot. # 3 for N  read from file:
     /home/ys/qepseudo/SSSP_1.3.0_PBE_efficiency/N.pbe-n-radius_5.UPF
     MD5 check sum: 16739722b17309cd8fe442a2ace49922
     Pseudo is Ultrasoft + core correction, Zval =  5.0
     Generated using "atomic" code by A. Dal Corso  v.5.1
     Using radial grid of 1085 points,  4 beta functions with:
                l(1) =   0
                l(2) =   0
                l(3) =   1
                l(4) =   1
     Q(r) pseudized with 0 coefficients

     PseudoPot. # 4 for H  read from file:
     /home/ys/qepseudo/SSSP_1.3.0_PBE_efficiency/H.pbe-rrkjus_psl.1.0.0.UPF
     MD5 check sum: f52b6d4d1c606e5624b1dc7b2218f220
     Pseudo is Ultrasoft, Zval =  1.0
     Generated using "atomic" code by A. Dal Corso  v.5.1
     Using radial grid of  929 points,  2 beta functions with:
                l(1) =   0
                l(2) =   0
     Q(r) pseudized with 0 coefficients

     atomic species   valence    mass     pseudopotential
     Zn               20.00    65.38000     Zn( 1.00)
     C                 4.00    12.01070     C ( 1.00)
     N                 5.00    14.00670     N ( 1.00)
     H                 1.00     1.00800     H ( 1.00)

     No symmetry found

                                    s                        frac. trans.

      isym =  1     identity

 cryst.   s( 1) = (     1          0          0      )
                  (     0          1          0      )
                  (     0          0          1      )

 cart.    s( 1) = (  1.0000000  0.0000000  0.0000000 )
                  (  0.0000000  1.0000000  0.0000000 )
                  (  0.0000000  0.0000000  1.0000000 )

   Cartesian axes

     site n.     atom                  positions (alat units)
         1        Zn     tau(   1) = (  -0.0000000   0.2886751   0.2329997  )
         2        Zn     tau(   2) = (  -0.0015107   0.2884541   1.1945753  )
         3        Zn     tau(   3) = (  -0.2500000   0.7216878   0.2329997  )
         4        Zn     tau(   4) = (  -0.2515639   0.7211356   1.1949008  )
         5        Zn     tau(   5) = (  -0.5000000   1.1547005   0.2329997  )
         6        Zn     tau(   6) = (  -0.5014369   1.1542914   1.1942673  )
         7        Zn     tau(   7) = (  -0.7500000   1.5877132   0.2329997  )
         8        Zn     tau(   8) = (  -0.7515478   1.5874804   1.1943131  )
         9        Zn     tau(   9) = (   0.5000000   0.2886751   0.2329997  )
        10        Zn     tau(  10) = (   0.4983819   0.2884080   1.1952424  )
        11        Zn     tau(  11) = (   0.2500000   0.7216878   0.2329997  )
        12        Zn     tau(  12) = (   0.2483939   0.7208138   1.1947085  )
        13        Zn     tau(  13) = (  -0.0000000   1.1547005   0.2329997  )
        14        Zn     tau(  14) = (  -0.0017550   1.1542888   1.1936075  )
        15        Zn     tau(  15) = (  -0.2500000   1.5877132   0.2329997  )
        16        Zn     tau(  16) = (  -0.2516023   1.5875235   1.1944186  )
        17        Zn     tau(  17) = (   0.2500000   0.1443376   0.6989991  )
        18        Zn     tau(  18) = (   0.2477506   0.1419000   1.6908985  )
        19        Zn     tau(  19) = (   0.0000000   0.5773503   0.6989991  )
        20        Zn     tau(  20) = (  -0.0022991   0.5747045   1.6915392  )
        21        Zn     tau(  21) = (  -0.2500000   1.0103630   0.6989991  )
        22        Zn     tau(  22) = (  -0.2522468   1.0077668   1.6904748  )
        23        Zn     tau(  23) = (  -0.5000000   1.4433757   0.6989991  )
        24        Zn     tau(  24) = (  -0.5022873   1.4408001   1.6903720  )
        25        Zn     tau(  25) = (   0.7500000   0.1443376   0.6989991  )
        26        Zn     tau(  26) = (   0.7477810   0.1418473   1.6890205  )
        27        Zn     tau(  27) = (   0.5000000   0.5773503   0.6989991  )
        28        Zn     tau(  28) = (   0.4978586   0.5746089   1.6884071  )
        29        Zn     tau(  29) = (   0.2500000   1.0103630   0.6989991  )
        30        Zn     tau(  30) = (   0.2474821   1.0077658   1.6791426  )
        31        Zn     tau(  31) = (   0.0000000   1.4433757   0.6989991  )
        32        Zn     tau(  32) = (  -0.0025302   1.4408558   1.6882964  )
        33        C      tau(  33) = (   0.2396948   0.8440787   3.4522735  )
        34        C      tau(  34) = (   0.2629622   0.8850696   3.1837837  )
        35        C      tau(  35) = (   0.4196925   0.7248407   3.0333290  )
        36        C      tau(  36) = (   0.1244306   1.0819450   3.0619006  )
        37        C      tau(  37) = (   0.1439048   1.1189244   2.7997821  )
        38        C      tau(  38) = (   0.4398602   0.7625095   2.7714241  )
        39        C      tau(  39) = (   0.3028181   0.9606213   2.6497324  )
        40        N      tau(  40) = (   0.2201078   0.8098588   3.6733315  )
        41        N      tau(  41) = (   0.3317693   1.0047566   2.3908262  )
        42        H      tau(  42) = (   0.1953376   1.1114644   2.3010226  )
        43        H      tau(  43) = (   0.4013196   0.8594522   2.2807159  )
        44        H      tau(  44) = (   0.5276157   0.5711749   3.1255326  )
        45        H      tau(  45) = (   0.0333280   1.2713199   2.7079288  )
        46        H      tau(  46) = (   0.5644196   0.6380540   2.6577570  )
        47        H      tau(  47) = (  -0.0011544   1.2045551   3.1757180  )

   Crystallographic axes

     site n.     atom                  positions (cryst. coord.)
         1        Zn     tau(   1) = (  0.1666667  0.1666667  0.0513044  )
         2        Zn     tau(   2) = (  0.1650284  0.1665390  0.2630344  )
         3        Zn     tau(   3) = (  0.1666667  0.4166667  0.0513044  )
         4        Zn     tau(   4) = (  0.1647839  0.4163478  0.2631061  )
         5        Zn     tau(   5) = (  0.1666667  0.6666667  0.0513044  )
         6        Zn     tau(   6) = (  0.1649935  0.6664304  0.2629666  )
         7        Zn     tau(   7) = (  0.1666667  0.9166667  0.0513044  )
         8        Zn     tau(   8) = (  0.1649844  0.9165322  0.2629767  )
         9        Zn     tau(   9) = (  0.6666667  0.1666667  0.0513044  )
        10        Zn     tau(  10) = (  0.6648944  0.1665124  0.2631813  )
        11        Zn     tau(  11) = (  0.6666667  0.4166667  0.0513044  )
        12        Zn     tau(  12) = (  0.6645559  0.4161620  0.2630637  )
        13        Zn     tau(  13) = (  0.6666667  0.6666667  0.0513044  )
        14        Zn     tau(  14) = (  0.6646740  0.6664290  0.2628213  )
        15        Zn     tau(  15) = (  0.6666667  0.9166667  0.0513044  )
        16        Zn     tau(  16) = (  0.6649548  0.9165571  0.2629999  )
        17        Zn     tau(  17) = (  0.3333333  0.0833333  0.1539131  )
        18        Zn     tau(  18) = (  0.3296766  0.0819260  0.3723202  )
        19        Zn     tau(  19) = (  0.3333333  0.3333333  0.1539131  )
        20        Zn     tau(  20) = (  0.3295067  0.3318058  0.3724612  )
        21        Zn     tau(  21) = (  0.3333333  0.5833333  0.1539131  )
        22        Zn     tau(  22) = (  0.3295877  0.5818345  0.3722269  )
        23        Zn     tau(  23) = (  0.3333333  0.8333333  0.1539131  )
        24        Zn     tau(  24) = (  0.3295591  0.8318463  0.3722042  )
        25        Zn     tau(  25) = (  0.8333333  0.0833333  0.1539131  )
        26        Zn     tau(  26) = (  0.8296766  0.0818956  0.3719066  )
        27        Zn     tau(  27) = (  0.8333333  0.3333333  0.1539131  )
        28        Zn     tau(  28) = (  0.8296092  0.3317506  0.3717716  )
        29        Zn     tau(  29) = (  0.8333333  0.5833333  0.1539131  )
        30        Zn     tau(  30) = (  0.8293160  0.5818339  0.3697316  )
        31        Zn     tau(  31) = (  0.8333333  0.8333333  0.1539131  )
        32        Zn     tau(  32) = (  0.8293483  0.8318785  0.3717472  )
        33        C      tau(  33) = (  0.7270239  0.4873291  0.7601586  )
        34        C      tau(  34) = (  0.7739574  0.5109951  0.7010396  )
[...]
     atom   18 type  1   force =     0.06343986    0.53056342 -379.35653091
     atom   19 type  1   force =     0.02621546    0.21316448  131.43620701
     atom   20 type  1   force =     0.20957673    2.55195318 -377.50763255
     atom   21 type  1   force =     0.03281647    0.00857936  131.57389403
     atom   22 type  1   force =    -0.22326614   -0.47620542 -375.29530588
     atom   23 type  1   force =     0.00168916   -0.21604009  131.54886535
     atom   24 type  1   force =    -0.17470521   -2.66143537 -377.49994345
     atom   25 type  1   force =     0.03016831    0.02891989  131.40611187
     atom   26 type  1   force =    -0.06205671    0.49179011 -378.66535481
     atom   27 type  1   force =    -0.01211050    0.22711409  131.41055238
     atom   28 type  1   force =    -0.21382645    2.62212649 -375.88172697
     atom   29 type  1   force =    -0.01832147   -0.00283058  131.58198941
     atom   30 type  1   force =     0.20614382   -0.47590063 -369.53657155
     atom   31 type  1   force =     0.01198527   -0.23239310  131.57900941
     atom   32 type  1   force =     0.15612553   -2.55151199 -376.73976258
     atom   33 type  2   force =    -0.16420235    0.07052561   14.69900801
     atom   34 type  2   force =     0.04577325    0.38706084   -8.74400158
     atom   35 type  2   force =    -2.72629727    5.85073135  -18.76282683
     atom   36 type  2   force =     3.01391222   -5.14897012  -17.61370401
     atom   37 type  2   force =     2.85022415   -5.89029711  -32.25031412
     atom   38 type  2   force =    -3.06684266    5.21083995  -33.39579426
     atom   39 type  2   force =     0.00114824   -0.34943640  -42.99488515
     atom   40 type  3   force =     0.68705913    1.66375534   30.60646660
     atom   41 type  3   force =    -1.13152544   -1.94444257  -73.38230906
     atom   42 type  4   force =     1.96898342   -1.96615987  -15.69732085
     atom   43 type  4   force =    -1.10639896    2.22752330  -15.76028861
     atom   44 type  4   force =    -1.38763184    2.69048975   -3.59337670
     atom   45 type  4   force =     1.43253276   -2.68319596   -9.12934204
     atom   46 type  4   force =    -1.57532680    2.32942427   -9.64417878
     atom   47 type  4   force =     1.57300106   -2.30707142   -3.09239449
     The core correction contribution to forces
     atom    1 type  1   force =     0.00000000    0.00000000    0.00000000
     atom    2 type  1   force =     0.00000000    0.00000000    0.00000000
     atom    3 type  1   force =     0.00000000    0.00000000    0.00000000
     atom    4 type  1   force =     0.00000000    0.00000000    0.00000000
     atom    5 type  1   force =     0.00000000    0.00000000    0.00000000
     atom    6 type  1   force =     0.00000000    0.00000000    0.00000000
     atom    7 type  1   force =     0.00000000    0.00000000    0.00000000
     atom    8 type  1   force =     0.00000000    0.00000000    0.00000000
     atom    9 type  1   force =     0.00000000    0.00000000    0.00000000
     atom   10 type  1   force =     0.00000000    0.00000000    0.00000000
     atom   11 type  1   force =     0.00000000    0.00000000    0.00000000
     atom   12 type  1   force =     0.00000000    0.00000000    0.00000000
     atom   13 type  1   force =     0.00000000    0.00000000    0.00000000
     atom   14 type  1   force =     0.00000000    0.00000000    0.00000000
     atom   15 type  1   force =     0.00000000    0.00000000    0.00000000
     atom   16 type  1   force =     0.00000000    0.00000000    0.00000000
     atom   17 type  1   force =     0.00000000    0.00000000    0.00000000
     atom   18 type  1   force =     0.00000000    0.00000000    0.00000000
     atom   19 type  1   force =     0.00000000    0.00000000    0.00000000
     atom   20 type  1   force =     0.00000000    0.00000000    0.00000000
     atom   21 type  1   force =     0.00000000    0.00000000    0.00000000
     atom   22 type  1   force =     0.00000000    0.00000000    0.00000000
     atom   23 type  1   force =     0.00000000    0.00000000    0.00000000
     atom   24 type  1   force =     0.00000000    0.00000000    0.00000000
     atom   25 type  1   force =     0.00000000    0.00000000    0.00000000
     atom   26 type  1   force =     0.00000000    0.00000000    0.00000000
     atom   27 type  1   force =     0.00000000    0.00000000    0.00000000
     atom   28 type  1   force =     0.00000000    0.00000000    0.00000000
     atom   29 type  1   force =     0.00000000    0.00000000    0.00000000
     atom   30 type  1   force =     0.00000000    0.00000000    0.00000000
     atom   31 type  1   force =     0.00000000    0.00000000    0.00000000
     atom   32 type  1   force =     0.00000000    0.00000000    0.00000000
     atom   33 type  2   force =    -0.00099209   -0.00245905    0.01676147
     atom   34 type  2   force =     0.00030592    0.00092179   -0.00479884
     atom   35 type  2   force =     0.00009708    0.00097968   -0.00117638
     atom   36 type  2   force =     0.00071854   -0.00018965   -0.00219357
     atom   37 type  2   force =     0.00035945   -0.00119709    0.00213356
     atom   38 type  2   force =    -0.00053077    0.00069686    0.00154139
     atom   39 type  2   force =    -0.00082952   -0.00113036    0.00698398
     atom   40 type  3   force =    -0.00081326   -0.00143417    0.00930704
     atom   41 type  3   force =     0.00499431    0.00409888   -0.00068957
     atom   42 type  4   force =     0.00000000    0.00000000    0.00000000
     atom   43 type  4   force =     0.00000000    0.00000000    0.00000000
     atom   44 type  4   force =     0.00000000    0.00000000    0.00000000
     atom   45 type  4   force =     0.00000000    0.00000000    0.00000000
     atom   46 type  4   force =     0.00000000    0.00000000    0.00000000
     atom   47 type  4   force =     0.00000000    0.00000000    0.00000000
     The Hubbard contrib.    to forces
     atom    1 type  1   force =     0.00000000    0.00000000    0.00000000
     atom    2 type  1   force =     0.00000000    0.00000000    0.00000000
     atom    3 type  1   force =     0.00000000    0.00000000    0.00000000
     atom    4 type  1   force =     0.00000000    0.00000000    0.00000000
     atom    5 type  1   force =     0.00000000    0.00000000    0.00000000
     atom    6 type  1   force =     0.00000000    0.00000000    0.00000000
     atom    7 type  1   force =     0.00000000    0.00000000    0.00000000
     atom    8 type  1   force =     0.00000000    0.00000000    0.00000000
     atom    9 type  1   force =     0.00000000    0.00000000    0.00000000
     atom   10 type  1   force =     0.00000000    0.00000000    0.00000000
     atom   11 type  1   force =     0.00000000    0.00000000    0.00000000
     atom   12 type  1   force =     0.00000000    0.00000000    0.00000000
     atom   13 type  1   force =     0.00000000    0.00000000    0.00000000
     atom   14 type  1   force =     0.00000000    0.00000000    0.00000000
     atom   15 type  1   force =     0.00000000    0.00000000    0.00000000
     atom   16 type  1   force =     0.00000000    0.00000000    0.00000000
     atom   17 type  1   force =     0.00000000    0.00000000    0.00000000
     atom   18 type  1   force =     0.00000000    0.00000000    0.00000000
     atom   19 type  1   force =     0.00000000    0.00000000    0.00000000
     atom   20 type  1   force =     0.00000000    0.00000000    0.00000000
     atom   21 type  1   force =     0.00000000    0.00000000    0.00000000
     atom   22 type  1   force =     0.00000000    0.00000000    0.00000000
     atom   23 type  1   force =     0.00000000    0.00000000    0.00000000
     atom   24 type  1   force =     0.00000000    0.00000000    0.00000000
     atom   25 type  1   force =     0.00000000    0.00000000    0.00000000
     atom   26 type  1   force =     0.00000000    0.00000000    0.00000000
     atom   27 type  1   force =     0.00000000    0.00000000    0.00000000
     atom   28 type  1   force =     0.00000000    0.00000000    0.00000000
     atom   29 type  1   force =     0.00000000    0.00000000    0.00000000
     atom   30 type  1   force =     0.00000000    0.00000000    0.00000000
     atom   31 type  1   force =     0.00000000    0.00000000    0.00000000
     atom   32 type  1   force =     0.00000000    0.00000000    0.00000000
     atom   33 type  2   force =     0.00000000    0.00000000    0.00000000
     atom   34 type  2   force =     0.00000000    0.00000000    0.00000000
     atom   35 type  2   force =     0.00000000    0.00000000    0.00000000
     atom   36 type  2   force =     0.00000000    0.00000000    0.00000000
     atom   37 type  2   force =     0.00000000    0.00000000    0.00000000
     atom   38 type  2   force =     0.00000000    0.00000000    0.00000000
     atom   39 type  2   force =     0.00000000    0.00000000    0.00000000
     atom   40 type  3   force =     0.00000000    0.00000000    0.00000000
     atom   41 type  3   force =     0.00000000    0.00000000    0.00000000
     atom   42 type  4   force =     0.00000000    0.00000000    0.00000000
     atom   43 type  4   force =     0.00000000    0.00000000    0.00000000
     atom   44 type  4   force =     0.00000000    0.00000000    0.00000000
     atom   45 type  4   force =     0.00000000    0.00000000    0.00000000
     atom   46 type  4   force =     0.00000000    0.00000000    0.00000000
     atom   47 type  4   force =     0.00000000    0.00000000    0.00000000
     The SCF correction term to forces
     atom    1 type  1   force =    -0.00000000    0.00000000   -0.00000000
     atom    2 type  1   force =     0.00000342    0.00083755   -0.00011206
     atom    3 type  1   force =     0.00000000    0.00000000    0.00000000
     atom    4 type  1   force =     0.00000509    0.00136546   -0.00006798
     atom    5 type  1   force =     0.00000000   -0.00000000    0.00000000
     atom    6 type  1   force =     0.00000471   -0.00085857   -0.00015260
     atom    7 type  1   force =     0.00000000   -0.00000000   -0.00000000
     atom    8 type  1   force =     0.00000116   -0.00133906   -0.00020729
     atom    9 type  1   force =     0.00000000    0.00000000   -0.00000000
     atom   10 type  1   force =    -0.00000380    0.00083336   -0.00012001
     atom   11 type  1   force =    -0.00000000    0.00000000    0.00000000
     atom   12 type  1   force =    -0.00000508    0.00136217   -0.00007600
     atom   13 type  1   force =    -0.00000000   -0.00000000    0.00000000
     atom   14 type  1   force =    -0.00000472   -0.00086127   -0.00014716
     atom   15 type  1   force =    -0.00000000   -0.00000000   -0.00000000
     atom   16 type  1   force =    -0.00000128   -0.00134314   -0.00019975
     atom   17 type  1   force =     0.00000000   -0.00000000   -0.00000000
     atom   18 type  1   force =    -0.00000781    0.00010105    0.00083821
     atom   19 type  1   force =    -0.00000000    0.00000000    0.00000000
     atom   20 type  1   force =    -0.00000705    0.00114770    0.00030719
     atom   21 type  1   force =    -0.00000000   -0.00000000    0.00000000
     atom   22 type  1   force =     0.00000083   -0.00010512   -0.00016370
     atom   23 type  1   force =    -0.00000000   -0.00000000    0.00000000
     atom   24 type  1   force =     0.00000803   -0.00113520    0.00035420
     atom   25 type  1   force =    -0.00000000   -0.00000000   -0.00000000
     atom   26 type  1   force =     0.00000727    0.00010103    0.00084004
     atom   27 type  1   force =     0.00000000    0.00000000    0.00000000
     atom   28 type  1   force =     0.00000757    0.00115555    0.00030916
     atom   29 type  1   force =     0.00000000    0.00000000    0.00000000
     atom   30 type  1   force =     0.00000014   -0.00010725   -0.00016262
     atom   31 type  1   force =     0.00000000   -0.00000000    0.00000000
     atom   32 type  1   force =    -0.00000784   -0.00113309    0.00035560
     atom   33 type  2   force =    -0.00001363   -0.00002844    0.00019825
     atom   34 type  2   force =    -0.00000323   -0.00000979    0.00008884
     atom   35 type  2   force =     0.00001606   -0.00002592    0.00000001
     atom   36 type  2   force =    -0.00001504    0.00002919    0.00000201
     atom   37 type  2   force =    -0.00004486    0.00007927   -0.00008940
     atom   38 type  2   force =     0.00005626   -0.00005061   -0.00009980
     atom   39 type  2   force =     0.00000912    0.00002026   -0.00011453
     atom   40 type  3   force =    -0.00000939   -0.00001984    0.00014122
     atom   41 type  3   force =     0.00001389    0.00002098   -0.00015198
     atom   42 type  4   force =     0.00001210   -0.00001155   -0.00000932
     atom   43 type  4   force =    -0.00000479    0.00001764   -0.00000868
     atom   44 type  4   force =     0.00001292   -0.00002081    0.00001225
     atom   45 type  4   force =     0.00000088    0.00000080   -0.00000888
     atom   46 type  4   force =     0.00000007    0.00000129   -0.00000961
     atom   47 type  4   force =    -0.00001427    0.00001762    0.00001469

     Total force =     0.044089     Total SCF correction =     0.004204

     Computing stress (Cartesian axis) and pressure

     negative rho (up, down):  5.710E-04 0.000E+00
          total   stress  (Ry/bohr**3)                   (kbar)     P=       -4.01
  -0.00009972   0.00000478   0.00000211          -14.67        0.70        0.31
   0.00000478   0.00001250   0.00000027            0.70        1.84        0.04
   0.00000211   0.00000027   0.00000540            0.31        0.04        0.79

     kinetic stress (kbar)  17685.46     63.08     13.48
                               63.08  17677.99     13.75
                               13.48     13.75  17676.39

     local   stress (kbar)**********   1123.34    394.97
                             1123.34**********    782.24
                              394.97    782.241318618.88

     nonloc. stress (kbar)  -1484.51     -4.40     -1.90
                               -4.40  -1476.04     -2.45
                               -1.90     -2.45  -1541.19

     hartree stress (kbar) 690541.77   -370.44   -136.63
                             -370.44 688650.33   -317.41
                             -136.63   -317.41-612897.42

     exc-cor stress (kbar)  -8467.46     -3.11     -0.89
                               -3.11  -8465.99     -0.96
                               -0.89     -0.96  -8472.77

     corecor stress (kbar)   -166.06      0.96      0.31
                                0.96   -166.48      0.32
                                0.31      0.32   -168.01

     ewald   stress (kbar) 609068.56   -808.72   -269.03
                             -808.72 607201.44   -475.46
                             -269.03   -475.46-713215.09

     hubbard stress (kbar)      0.00      0.00      0.00
                                0.00      0.00      0.00
                                0.00      0.00      0.00

     DFT-D   stress (kbar)      0.00      0.00      0.00
                                0.00      0.00      0.00
                                0.00      0.00      0.00

     XDM     stress (kbar)      0.00      0.00      0.00
                                0.00      0.00      0.00
                                0.00      0.00      0.00

     dft-nl  stress (kbar)      0.00      0.00      0.00
                                0.00      0.00      0.00
                                0.00      0.00      0.00

     TS-vdW  stress (kbar)      0.00      0.00      0.00
                                0.00      0.00      0.00
                                0.00      0.00      0.00

     MDB     stress (kbar)      0.00      0.00      0.00
                                0.00      0.00      0.00
                                0.00      0.00      0.00

     3D-RISM stress (kbar)      0.00      0.00      0.00
                                0.00      0.00      0.00
                                0.00      0.00      0.00

     Writing all to output data dir ./tmp/Zn002_2x2x4_scf_ABN.save/ :
     XML data file, charge density, pseudopotentials, collected wavefunctions

     General routines

     Parallel routines

     PAW routines

   This run was terminated on:  11:43:46  17Mar2025

   JOB DONE.
Note: The following floating-point exceptions are signalling: IEEE_DENORMAL
Note: The following floating-point exceptions are signalling: IEEE_DENORMAL
Note: The following floating-point exceptions are signalling: IEEE_DENORMAL
Note: The following floating-point exceptions are signalling: IEEE_DENORMAL
Note: The following floating-point exceptions are signalling: IEEE_DENORMAL
Note: The following floating-point exceptions are signalling: IEEE_DENORMAL