     Program PWSCF v.7.3.1 starts on 23Jan1998 at 10:33:32

     Waiting for input...
     Reading input from standard input
Warning: card &CELL ignored
Warning: card   CELL_DOFREE = 'ALL' ignored
Warning: card / ignored

     Current dimensions of program PWSCF are:
     Max number of different atomic species (ntypx) = 10
     Max number of k-points (npk) =  40000
     Max angular momentum in pseudopotentials (lmaxx) =  4
     Found identity + ( -0.0000 -0.5000  0.0000) symmetry
     This is a supercell, fractional translations are disabled

     R & G space division:  proc/nbgrp/npool/nimage =      30
     Subspace diagonalization in iterative solution of the eigenvalue problem:
     one sub-group per band group will be used

     Using Slab Decomposition

     bravais-lattice index     =            0
     lattice parameter (alat)  =      20.9009  a.u.
     unit-cell volume          =    8423.3755 (a.u.)^3
     number of atoms/cell      =           32
     number of atomic types    =            1
     number of electrons       =       640.00
     number of Kohn-Sham states=          384
     kinetic-energy cutoff     =      30.0000  Ry
     charge density cutoff     =     120.0000  Ry
     scf convergence threshold =      7.3E-07
     mixing beta               =       0.7000
     number of iterations used =            8  plain     mixing
     energy convergence thresh.=      1.0E-05
     force convergence thresh. =      5.0E-04
     Exchange-correlation= SLA  PW   PBE  PBE
                           (   1   4   3   4   0   0   0)
     nstep                     =          100

     celldm(1)=  20.900943  celldm(2)=   0.000000  celldm(3)=   0.000000
     celldm(4)=   0.000000  celldm(5)=   0.000000  celldm(6)=   0.000000

     crystal axes: (cart. coord. in units of alat)
               a(1) = (   1.000000   0.000000   0.000000 )
               a(2) = (  -0.111745   0.459350   0.000000 )
               a(3) = (  -4.200249  -1.021781   2.008375 )

     reciprocal axes: (cart. coord. in units 2 pi/alat)
               b(1) = (  1.000000  0.243267  2.215131 )
               b(2) = ( -0.000000  2.176989  1.107566 )
               b(3) = (  0.000000 -0.000000  0.497915 )

     PseudoPot. # 1 for Zn read from file:
     /home/ys/qepseudo/SSSP_1.3.0_PBE_efficiency/Zn_pbe_v1.uspp.F.UPF
     MD5 check sum: df62231357ef9e81f77b2b3087fa5675
     Pseudo is Ultrasoft, Zval = 20.0
     Generated by new atomic code, or converted to UPF format
     Using radial grid of  943 points,  6 beta functions with:
                l(1) =   0
                l(2) =   0
                l(3) =   1
                l(4) =   1
                l(5) =   2
                l(6) =   2
     Q(r) pseudized with  8 coefficients,  rinner =    1.100   1.100   1.100
                                                       1.100   1.100

     atomic species   valence    mass     pseudopotential
     Zn               20.00    65.38000     Zn( 1.00)

     No symmetry found

                                    s                        frac. trans.

      isym =  1     identity

 cryst.   s( 1) = (     1          0          0      )
                  (     0          1          0      )
                  (     0          0          1      )

 cart.    s( 1) = (  1.0000000  0.0000000  0.0000000 )
                  (  0.0000000  1.0000000  0.0000000 )
                  (  0.0000000  0.0000000  1.0000000 )

   Cartesian axes

     site n.     atom                  positions (alat units)
         1        Zn     tau(   1) = (  -0.0970639   0.0980210   0.1082939  )
         2        Zn     tau(   2) = (  -0.4853192   0.0035714   0.2939406  )
         3        Zn     tau(   3) = (  -0.8735746  -0.0908783   0.4795873  )
         4        Zn     tau(   4) = (  -1.2618300  -0.1853280   0.6652341  )
         5        Zn     tau(   5) = (  -0.1529362   0.3276960   0.1082939  )
         6        Zn     tau(   6) = (  -0.5411916   0.2332464   0.2939406  )
         7        Zn     tau(   7) = (  -0.9294469   0.1387967   0.4795873  )
         8        Zn     tau(   8) = (  -1.3177023   0.0443470   0.6652341  )
         9        Zn     tau(   9) = (   0.4029361   0.0980210   0.1082939  )
        10        Zn     tau(  10) = (   0.0146808   0.0035714   0.2939406  )
        11        Zn     tau(  11) = (  -0.3735746  -0.0908783   0.4795873  )
        12        Zn     tau(  12) = (  -0.7618300  -0.1853280   0.6652341  )
        13        Zn     tau(  13) = (   0.3470638   0.3276960   0.1082939  )
        14        Zn     tau(  14) = (  -0.0411916   0.2332464   0.2939406  )
        15        Zn     tau(  15) = (  -0.4294469   0.1387967   0.4795873  )
        16        Zn     tau(  16) = (  -0.8177023   0.0443470   0.6652341  )
        17        Zn     tau(  17) = (   0.1529362   0.0372043   0.0773528  )
        18        Zn     tau(  18) = (  -0.2353192  -0.0572454   0.2629995  )
        19        Zn     tau(  19) = (  -0.6235746  -0.1516950   0.4486462  )
        20        Zn     tau(  20) = (  -1.0118300  -0.2461447   0.6342929  )
        21        Zn     tau(  21) = (   0.0970639   0.2668793   0.0773528  )
        22        Zn     tau(  22) = (  -0.2911915   0.1724296   0.2629995  )
        23        Zn     tau(  23) = (  -0.6794469   0.0779800   0.4486462  )
        24        Zn     tau(  24) = (  -1.0677023  -0.0164697   0.6342929  )
        25        Zn     tau(  25) = (   0.6529362   0.0372043   0.0773528  )
        26        Zn     tau(  26) = (   0.2646808  -0.0572454   0.2629995  )
        27        Zn     tau(  27) = (  -0.1235746  -0.1516950   0.4486462  )
        28        Zn     tau(  28) = (  -0.5118300  -0.2461447   0.6342929  )
        29        Zn     tau(  29) = (   0.5970639   0.2668793   0.0773528  )
        30        Zn     tau(  30) = (   0.2088085   0.1724296   0.2629995  )
        31        Zn     tau(  31) = (  -0.1794469   0.0779800   0.4486462  )
        32        Zn     tau(  32) = (  -0.5677023  -0.0164697   0.6342929  )

   Crystallographic axes

     site n.     atom                  positions (cryst. coord.)
         1        Zn     tau(   1) = (  0.1666667  0.3333333  0.0539212  )
         2        Zn     tau(   2) = (  0.1666667  0.3333333  0.1463574  )
         3        Zn     tau(   3) = (  0.1666667  0.3333333  0.2387937  )
         4        Zn     tau(   4) = (  0.1666667  0.3333333  0.3312300  )
         5        Zn     tau(   5) = (  0.1666667  0.8333333  0.0539212  )
         6        Zn     tau(   6) = (  0.1666667  0.8333333  0.1463574  )
         7        Zn     tau(   7) = (  0.1666667  0.8333333  0.2387937  )
         8        Zn     tau(   8) = (  0.1666667  0.8333333  0.3312300  )
         9        Zn     tau(   9) = (  0.6666667  0.3333333  0.0539212  )
        10        Zn     tau(  10) = (  0.6666667  0.3333333  0.1463574  )
        11        Zn     tau(  11) = (  0.6666667  0.3333333  0.2387937  )
        12        Zn     tau(  12) = (  0.6666667  0.3333333  0.3312300  )
        13        Zn     tau(  13) = (  0.6666667  0.8333333  0.0539212  )
        14        Zn     tau(  14) = (  0.6666667  0.8333333  0.1463574  )
        15        Zn     tau(  15) = (  0.6666667  0.8333333  0.2387937  )
        16        Zn     tau(  16) = (  0.6666667  0.8333333  0.3312300  )
        17        Zn     tau(  17) = (  0.3333333  0.1666667  0.0385151  )
        18        Zn     tau(  18) = (  0.3333333  0.1666667  0.1309514  )
        19        Zn     tau(  19) = (  0.3333333  0.1666667  0.2233877  )
        20        Zn     tau(  20) = (  0.3333333  0.1666667  0.3158240  )
        21        Zn     tau(  21) = (  0.3333333  0.6666667  0.0385151  )
        22        Zn     tau(  22) = (  0.3333333  0.6666667  0.1309514  )
        23        Zn     tau(  23) = (  0.3333333  0.6666667  0.2233877  )
        24        Zn     tau(  24) = (  0.3333333  0.6666667  0.3158240  )
        25        Zn     tau(  25) = (  0.8333333  0.1666667  0.0385151  )
        26        Zn     tau(  26) = (  0.8333333  0.1666667  0.1309514  )
        27        Zn     tau(  27) = (  0.8333333  0.1666667  0.2233877  )
        28        Zn     tau(  28) = (  0.8333333  0.1666667  0.3158240  )
        29        Zn     tau(  29) = (  0.8333333  0.6666667  0.0385151  )
        30        Zn     tau(  30) = (  0.8333333  0.6666667  0.1309514  )
        31        Zn     tau(  31) = (  0.8333333  0.6666667  0.2233877  )
        32        Zn     tau(  32) = (  0.8333333  0.6666667  0.3158240  )

     number of k points=     5  Marzari-Vanderbilt smearing, width (Ry)=  0.0200
                       cart. coord. in units 2pi/alat
        k(    1) = (   0.0000000   0.0000000   0.0000000), wk =   0.2222222
        k(    2) = (   0.0000000   0.7256631   0.3691885), wk =   0.4444444
        k(    3) = (   0.3333333   0.0810890   0.7383771), wk =   0.4444444
        k(    4) = (   0.3333333   0.8067520   1.1075656), wk =   0.4444444
        k(    5) = (   0.3333333  -0.6445741   0.3691886), wk =   0.4444444

                       cryst. coord.
        k(    1) = (   0.0000000   0.0000000   0.0000000), wk =   0.2222222
        k(    2) = (   0.0000000   0.3333333  -0.0000000), wk =   0.4444444
        k(    3) = (   0.3333333   0.0000000   0.0000000), wk =   0.4444444
        k(    4) = (   0.3333333   0.3333333   0.0000000), wk =   0.4444444
        k(    5) = (   0.3333333  -0.3333333   0.0000000), wk =   0.4444444

     Initial potential from superposition of free atoms

     starting charge     639.9955, renormalised to     640.0000

     negative rho (up, down):  9.016E-04 0.000E+00
     Starting wfcs are  416 randomized atomic wfcs
[psid00:282404] Set MCA parameter "orte_base_help_aggregate" to 0 to see all help / error messages

     Self-consistent Calculation

     iteration #  1     ecut=    30.00 Ry     beta= 0.70
     Davidson diagonalization with overlap

     ethr =  1.00E-02,  avg # of iterations =  8.0

     Threshold (ethr) on eigenvalues was too large:
     Diagonalizing with lowered threshold

     Davidson diagonalization with overlap

[...]

     negative rho (up, down):  3.160E-03 0.000E+00

     total energy              =  -14766.74441352 Ry
     estimated scf accuracy    <       1.33083180 Ry

[...]

     End of self-consistent calculation

          k = 0.0000 0.0000 0.0000 ( 23429 PWs)   bands (ev):

  -124.2896-124.2894-124.2884-124.2873-124.2869-124.2868-124.2866-124.2864
  -124.2862-124.2854-124.2853-124.2852-124.2845-124.2845-124.2840-124.2833
  -123.9867-123.9865-123.9860-123.9857-123.9857-123.9855-123.9852-123.9850
  -123.8325-123.8322-123.8315-123.8314-123.8310-123.8308-123.8302-123.8300
   -78.4043 -78.4042 -78.4026 -78.4025 -78.3971 -78.3971 -78.3960 -78.3960
   -78.3870 -78.3852 -78.3848 -78.3827 -78.3786 -78.3778 -78.3727 -78.3722
   -78.3722 -78.3712 -78.3711 -78.3706 -78.3701 -78.3699 -78.3696 -78.3695
   -78.3694 -78.3692 -78.3691 -78.3675 -78.3668 -78.3663 -78.3663 -78.3658
   -78.3657 -78.3655 -78.3653 -78.3649 -78.3637 -78.3637 -78.3637 -78.3634
   -78.3627 -78.3621 -78.3620 -78.3615 -78.3586 -78.3558 -78.3541 -78.3535
   -78.0880 -78.0878 -78.0874 -78.0873 -78.0872 -78.0868 -78.0861 -78.0858
[...]
     atom   31 type  1   force =     4.37163019    1.06330911   90.98003780
     atom   32 type  1   force =    11.53423996    2.80616210  338.99211834
     The local contribution  to forces
     atom    1 type  1   force =    13.26535048    3.22702128  348.58464776
     atom    2 type  1   force =     2.66792244    0.64882650   95.10620343
     atom    3 type  1   force =     3.27793858    0.79736892 -154.80596589
     atom    4 type  1   force =    10.53312096    2.56252421 -373.83240384
     atom    5 type  1   force =    13.26535066    3.22702040  348.58464805
     atom    6 type  1   force =     2.66793286    0.64878384   95.10621017
     atom    7 type  1   force =     3.27795487    0.79743423 -154.80596231
     atom    8 type  1   force =    10.53315295    2.56239704 -373.83241244
     atom    9 type  1   force =    13.50833706    3.28613305  348.75984487
     atom   10 type  1   force =     2.20097265    0.53527335   94.30063700
     atom   11 type  1   force =     3.05571261    0.74346361 -152.75172572
     atom   12 type  1   force =    12.07135400    2.93682399 -373.40718081
     atom   13 type  1   force =    13.50833704    3.28613241  348.75984081
     atom   14 type  1   force =     2.20097405    0.53527990   94.30064407
     atom   15 type  1   force =     3.05567754    0.74349002 -152.75179093
     atom   16 type  1   force =    12.07133770    2.93676934 -373.40711758
     atom   17 type  1   force =    -8.05999517   -1.96073558  376.47617472
     atom   18 type  1   force =    -6.40714869   -1.55872555  137.73827631
     atom   19 type  1   force =    -2.82167090   -0.68604415  -90.80513307
     atom   20 type  1   force =   -13.39319187   -3.25830025 -339.30262441
     atom   21 type  1   force =    -8.05999540   -1.96073581  376.47617579
     atom   22 type  1   force =    -6.40714703   -1.55872591  137.73827866
     atom   23 type  1   force =    -2.82161866   -0.68599866  -90.80509116
     atom   24 type  1   force =   -13.39320110   -3.25829464 -339.30259865
     atom   25 type  1   force =    -8.17484666   -1.98867444  376.70638148
     atom   26 type  1   force =    -5.66877540   -1.37922234  137.24965692
     atom   27 type  1   force =    -4.40014001   -1.07024815  -90.96445625
     atom   28 type  1   force =   -11.69400105   -2.84483608 -339.06210033
     atom   29 type  1   force =    -8.17484645   -1.98867554  376.70638167
     atom   30 type  1   force =    -5.66877835   -1.37920784  137.24966524
     atom   31 type  1   force =    -4.40015097   -1.07023606  -90.96445318
     atom   32 type  1   force =   -11.69395073   -2.84502321 -339.06208613
     The core correction contribution to forces
     atom    1 type  1   force =     0.00000000    0.00000000    0.00000000
     atom    2 type  1   force =     0.00000000    0.00000000    0.00000000
     atom    3 type  1   force =     0.00000000    0.00000000    0.00000000
     atom    4 type  1   force =     0.00000000    0.00000000    0.00000000
     atom    5 type  1   force =     0.00000000    0.00000000    0.00000000
     atom    6 type  1   force =     0.00000000    0.00000000    0.00000000
     atom    7 type  1   force =     0.00000000    0.00000000    0.00000000
     atom    8 type  1   force =     0.00000000    0.00000000    0.00000000
     atom    9 type  1   force =     0.00000000    0.00000000    0.00000000
     atom   10 type  1   force =     0.00000000    0.00000000    0.00000000
     atom   11 type  1   force =     0.00000000    0.00000000    0.00000000
     atom   12 type  1   force =     0.00000000    0.00000000    0.00000000
     atom   13 type  1   force =     0.00000000    0.00000000    0.00000000
     atom   14 type  1   force =     0.00000000    0.00000000    0.00000000
     atom   15 type  1   force =     0.00000000    0.00000000    0.00000000
     atom   16 type  1   force =     0.00000000    0.00000000    0.00000000
     atom   17 type  1   force =     0.00000000    0.00000000    0.00000000
     atom   18 type  1   force =     0.00000000    0.00000000    0.00000000
     atom   19 type  1   force =     0.00000000    0.00000000    0.00000000
     atom   20 type  1   force =     0.00000000    0.00000000    0.00000000
     atom   21 type  1   force =     0.00000000    0.00000000    0.00000000
     atom   22 type  1   force =     0.00000000    0.00000000    0.00000000
     atom   23 type  1   force =     0.00000000    0.00000000    0.00000000
     atom   24 type  1   force =     0.00000000    0.00000000    0.00000000
     atom   25 type  1   force =     0.00000000    0.00000000    0.00000000
     atom   26 type  1   force =     0.00000000    0.00000000    0.00000000
     atom   27 type  1   force =     0.00000000    0.00000000    0.00000000
     atom   28 type  1   force =     0.00000000    0.00000000    0.00000000
     atom   29 type  1   force =     0.00000000    0.00000000    0.00000000
     atom   30 type  1   force =     0.00000000    0.00000000    0.00000000
     atom   31 type  1   force =     0.00000000    0.00000000    0.00000000
     atom   32 type  1   force =     0.00000000    0.00000000    0.00000000
     The Hubbard contrib.    to forces
     atom    1 type  1   force =     0.00000000    0.00000000    0.00000000
     atom    2 type  1   force =     0.00000000    0.00000000    0.00000000
     atom    3 type  1   force =     0.00000000    0.00000000    0.00000000
     atom    4 type  1   force =     0.00000000    0.00000000    0.00000000
     atom    5 type  1   force =     0.00000000    0.00000000    0.00000000
     atom    6 type  1   force =     0.00000000    0.00000000    0.00000000
     atom    7 type  1   force =     0.00000000    0.00000000    0.00000000
     atom    8 type  1   force =     0.00000000    0.00000000    0.00000000
     atom    9 type  1   force =     0.00000000    0.00000000    0.00000000
     atom   10 type  1   force =     0.00000000    0.00000000    0.00000000
     atom   11 type  1   force =     0.00000000    0.00000000    0.00000000
     atom   12 type  1   force =     0.00000000    0.00000000    0.00000000
     atom   13 type  1   force =     0.00000000    0.00000000    0.00000000
     atom   14 type  1   force =     0.00000000    0.00000000    0.00000000
     atom   15 type  1   force =     0.00000000    0.00000000    0.00000000
     atom   16 type  1   force =     0.00000000    0.00000000    0.00000000
     atom   17 type  1   force =     0.00000000    0.00000000    0.00000000
     atom   18 type  1   force =     0.00000000    0.00000000    0.00000000
     atom   19 type  1   force =     0.00000000    0.00000000    0.00000000
     atom   20 type  1   force =     0.00000000    0.00000000    0.00000000
     atom   21 type  1   force =     0.00000000    0.00000000    0.00000000
     atom   22 type  1   force =     0.00000000    0.00000000    0.00000000
     atom   23 type  1   force =     0.00000000    0.00000000    0.00000000
     atom   24 type  1   force =     0.00000000    0.00000000    0.00000000
     atom   25 type  1   force =     0.00000000    0.00000000    0.00000000
     atom   26 type  1   force =     0.00000000    0.00000000    0.00000000
     atom   27 type  1   force =     0.00000000    0.00000000    0.00000000
     atom   28 type  1   force =     0.00000000    0.00000000    0.00000000
     atom   29 type  1   force =     0.00000000    0.00000000    0.00000000
     atom   30 type  1   force =     0.00000000    0.00000000    0.00000000
     atom   31 type  1   force =     0.00000000    0.00000000    0.00000000
     atom   32 type  1   force =     0.00000000    0.00000000    0.00000000
     The SCF correction term to forces
     atom    1 type  1   force =     0.00000000    0.00000000    0.00000000
     atom    2 type  1   force =    -0.00000000   -0.00000000    0.00000000
     atom    3 type  1   force =    -0.00002229   -0.00000544    0.00001163
     atom    4 type  1   force =     0.00001807    0.00000440   -0.00022712
     atom    5 type  1   force =     0.00000000    0.00000000    0.00000000
     atom    6 type  1   force =    -0.00000000   -0.00000000    0.00000000
     atom    7 type  1   force =    -0.00002229   -0.00000545    0.00001163
     atom    8 type  1   force =     0.00001808    0.00000438   -0.00022712
     atom    9 type  1   force =    -0.00000000   -0.00000000    0.00000000
     atom   10 type  1   force =    -0.00000000   -0.00000000    0.00000000
     atom   11 type  1   force =    -0.00002264   -0.00000552   -0.00006381
     atom   12 type  1   force =     0.00002761    0.00000669   -0.00027527
     atom   13 type  1   force =    -0.00000000   -0.00000000    0.00000000
     atom   14 type  1   force =    -0.00000000   -0.00000000    0.00000000
     atom   15 type  1   force =    -0.00002264   -0.00000551   -0.00006382
     atom   16 type  1   force =     0.00002760    0.00000668   -0.00027527
     atom   17 type  1   force =     0.00000000    0.00000000    0.00000000
     atom   18 type  1   force =    -0.00000000   -0.00000000    0.00000000
     atom   19 type  1   force =     0.00004163    0.00001012    0.00003249
     atom   20 type  1   force =    -0.00005669   -0.00001380   -0.00017534
     atom   21 type  1   force =     0.00000000    0.00000000    0.00000000
     atom   22 type  1   force =    -0.00000000   -0.00000000    0.00000000
     atom   23 type  1   force =     0.00004163    0.00001012    0.00003249
     atom   24 type  1   force =    -0.00005669   -0.00001381   -0.00017533
     atom   25 type  1   force =    -0.00000000   -0.00000000    0.00000000
     atom   26 type  1   force =     0.00000000    0.00000000    0.00000000
     atom   27 type  1   force =    -0.00003746   -0.00000910    0.00006762
     atom   28 type  1   force =    -0.00002473   -0.00000603   -0.00018214
     atom   29 type  1   force =    -0.00000000   -0.00000000    0.00000000
     atom   30 type  1   force =     0.00000000    0.00000000    0.00000000
     atom   31 type  1   force =    -0.00003746   -0.00000910    0.00006762
     atom   32 type  1   force =    -0.00002473   -0.00000605   -0.00018214

     Total force =     0.001056     Total SCF correction =     0.000649
     SCF correction compared to forces is large: reduce conv_thr to get better values

     Computing stress (Cartesian axis) and pressure

          total   stress  (Ry/bohr**3)                   (kbar)     P=     -283.75
  -0.00198962  -0.00000387   0.00001748         -292.68       -0.57        2.57
  -0.00000387  -0.00197465   0.00000425           -0.57     -290.48        0.62
   0.00001748   0.00000425  -0.00182244            2.57        0.62     -268.09

     kinetic stress (kbar)  15079.95      9.07     -3.27
                                9.07  15044.86     -0.79
                               -3.27     -0.79  15116.88

     local   stress (kbar)**********   3666.49  -1297.15
                             3666.49**********   -315.41
                            -1297.15   -315.411187440.13

     nonloc. stress (kbar)  -1863.09     -6.30      3.31
                               -6.30  -1838.71      0.80
                                3.31      0.80  -1869.79

     hartree stress (kbar) 620159.92  -1587.50    534.74
                            -1587.50 626299.55    130.03
                              534.74    130.03-552128.19

     exc-cor stress (kbar)  -7541.94     -0.90      0.42
                               -0.90  -7538.45      0.10
                                0.42      0.10  -7545.42

     corecor stress (kbar)      0.00      0.00      0.00
                                0.00      0.00      0.00
                                0.00      0.00      0.00

     ewald   stress (kbar) 546960.95  -2081.42    764.52
                            -2081.42 555010.79    185.90
                              764.52    185.90-641281.70

     hubbard stress (kbar)      0.00      0.00      0.00
                                0.00      0.00      0.00
                                0.00      0.00      0.00

     DFT-D   stress (kbar)      0.00      0.00      0.00
                                0.00      0.00      0.00
                                0.00      0.00      0.00

     XDM     stress (kbar)      0.00      0.00      0.00
                                0.00      0.00      0.00
                                0.00      0.00      0.00

     dft-nl  stress (kbar)      0.00      0.00      0.00
                                0.00      0.00      0.00
                                0.00      0.00      0.00

     TS-vdW  stress (kbar)      0.00      0.00      0.00
                                0.00      0.00      0.00
                                0.00      0.00      0.00

     MDB     stress (kbar)      0.00      0.00      0.00
                                0.00      0.00      0.00
                                0.00      0.00      0.00

     3D-RISM stress (kbar)      0.00      0.00      0.00
                                0.00      0.00      0.00
                                0.00      0.00      0.00

     Energy error            =      8.6E-06 Ry
     Gradient error          =      4.6E-04 Ry/Bohr

     bfgs converged in  41 scf cycles and  39 bfgs steps
     (criteria: energy <  1.0E-05 Ry, force <  5.0E-04 Ry/Bohr)

     End of BFGS Geometry Optimization

     Final energy             =  -14767.5265949195 Ry

     File ./tmp/Zn002_2x2x4_relax_ecutrho250_ecutwfc25.bfgs deleted, as requested
Begin final coordinates

ATOMIC_POSITIONS (angstrom)
Zn              -1.0583756257        1.0878350312        1.1905051393    0   0   0
Zn              -5.4116082812        0.0288378040        3.2720302778    0   0   0
Zn              -9.6438290255       -1.0006695989        5.7193690795
Zn             -13.6402290490       -1.9728612859        7.7826331937
Zn              -1.6763403416        3.6281100293        1.1905051393    0   0   0
Zn              -6.0295729963        2.5691128020        3.2720302778    0   0   0
Zn             -10.2617927349        1.5396057431        5.7193689522
Zn             -14.2581937076        0.5674124293        7.7826334021
Zn               4.4717757415        1.0878350312        1.1905051393    0   0   0
Zn               0.1185430859        0.0288378040        3.2720302778    0   0   0
Zn              -4.1115193403       -1.0001429042        5.7013495255
Zn              -8.0833088758       -1.9663079439        7.7779821889
Zn               3.8538110264        3.6281100293        1.1905051393    0   0   0
Zn              -0.4994216292        2.5691128020        3.2720302778    0   0   0
Zn              -4.7294847843        1.5401323347        5.7013495493
Zn              -8.7012717412        0.5739667969        7.7779817865
Zn               1.6173296221        0.3934427395        0.8910199993    0   0   0
Zn              -2.7359030334       -0.6655544877        2.9725451379    0   0   0
Zn              -6.9215502344       -1.6837237574        5.0761430107
Zn             -11.1056874797       -2.7016229756        7.3618919212
Zn               0.9993649062        2.9337177376        0.8910199993    0   0   0
Zn              -3.3538677485        1.8747205103        2.9725451379    0   0   0
Zn              -7.5395122450        0.8565520118        5.0761422174
Zn             -11.7236512278       -0.1613473685        7.3618915573
Zn               7.1474809893        0.3934427395        0.8910199993    0   0   0
Zn               2.7942483337       -0.6655544877        2.9725451379    0   0   0
Zn              -1.3953148826       -1.6847062747        5.0793681596
Zn              -5.5516295389       -2.6957751300        7.3617425575
Zn               6.5295162742        2.9337177376        0.8910199993    0   0   0
Zn               2.1762836186        1.8747205103        2.9725451379    0   0   0
Zn              -2.0132798911        0.8555689409        5.0793680658
Zn              -6.1695931825       -0.1555021078        7.3617424666
End final coordinates

     Writing all to output data dir ./tmp/Zn002_2x2x4_relax_ecutrho250_ecutwfc25.save/ :
     XML data file, charge density, pseudopotentials, collected wavefunctions

     General routines

     Parallel routines

   This run was terminated on:  15:51:48  23Jan1998

   JOB DONE.
Note: The following floating-point exceptions are signalling: IEEE_DENORMAL
Note: The following floating-point exceptions are signalling: IEEE_DENORMAL
Note: The following floating-point exceptions are signalling: IEEE_DENORMAL
Note: The following floating-point exceptions are signalling: IEEE_DENORMAL
Note: The following floating-point exceptions are signalling: IEEE_DENORMAL
Note: The following floating-point exceptions are signalling: IEEE_DENORMAL
Note: The following floating-point exceptions are signalling: IEEE_DENORMAL