     Program PWSCF v.7.3.1 starts on 30Mar2025 at 14:21:36

     Waiting for input...
     Reading input from standard input
Warning: card &CELL ignored
Warning: card   CELL_DOFREE = 'ALL' ignored
Warning: card / ignored

     Current dimensions of program PWSCF are:
     Max number of different atomic species (ntypx) = 10
     Max number of k-points (npk) =  40000
     Max angular momentum in pseudopotentials (lmaxx) =  4
     file C.pbe-n-kjpaw_psl.1.0.0.UPF: wavefunction(s)  2S 2P renormalized

     R & G space division:  proc/nbgrp/npool/nimage =      33
     Subspace diagonalization in iterative solution of the eigenvalue problem:
     one sub-group per band group will be used

     Using Slab Decomposition

     bravais-lattice index     =            0
     lattice parameter (alat)  =      18.4179  a.u.
     unit-cell volume          =   15858.2170 (a.u.)^3
     number of atoms/cell      =           63
     number of atomic types    =            4
     number of electrons       =      1004.00
     number of Kohn-Sham states=          602
     kinetic-energy cutoff     =      40.0000  Ry
     charge density cutoff     =     280.0000  Ry
     scf convergence threshold =      1.0E-06
     mixing beta               =       0.4000
     number of iterations used =            8  plain     mixing
     energy convergence thresh.=      1.0E-05
     force convergence thresh. =      5.0E-04
     Exchange-correlation= PBE
                           (   1   4   3   4   0   0   0)
     nstep                     =          100

     celldm(1)=  18.417879  celldm(2)=   0.000000  celldm(3)=   0.000000
     celldm(4)=   0.000000  celldm(5)=   0.000000  celldm(6)=   0.000000

     crystal axes: (cart. coord. in units of alat)
               a(1) = (   1.000000   0.000000   0.000000 )
               a(2) = (   0.000000   1.072963   0.000000 )
               a(3) = (   0.000000  -1.365810   2.365652 )

     reciprocal axes: (cart. coord. in units 2 pi/alat)
               b(1) = (  1.000000  0.000000 -0.000000 )
               b(2) = ( -0.000000  0.931999  0.538090 )
               b(3) = (  0.000000  0.000000  0.422716 )

     PseudoPot. # 1 for Zn read from file:
     /home/ys/qepseudo/SSSP_1.3.0_PBE_efficiency/Zn_pbe_v1.uspp.F.UPF
     MD5 check sum: df62231357ef9e81f77b2b3087fa5675
     Pseudo is Ultrasoft, Zval = 20.0
     Generated by new atomic code, or converted to UPF format
     Using radial grid of  943 points,  6 beta functions with:
                l(1) =   0
                l(2) =   0
                l(3) =   1
                l(4) =   1
                l(5) =   2
                l(6) =   2
     Q(r) pseudized with  8 coefficients,  rinner =    1.100   1.100   1.100
                                                       1.100   1.100

     PseudoPot. # 2 for N  read from file:
     /home/ys/qepseudo/SSSP_1.3.0_PBE_efficiency/N.pbe-n-radius_5.UPF
     MD5 check sum: 16739722b17309cd8fe442a2ace49922
     Pseudo is Ultrasoft + core correction, Zval =  5.0
     Generated using "atomic" code by A. Dal Corso  v.5.1
     Using radial grid of 1085 points,  4 beta functions with:
                l(1) =   0
                l(2) =   0
                l(3) =   1
                l(4) =   1
     Q(r) pseudized with 0 coefficients

     PseudoPot. # 3 for C  read from file:
     /home/ys/qepseudo/SSSP_1.3.0_PBE_efficiency/C.pbe-n-kjpaw_psl.1.0.0.UPF
     MD5 check sum: 5d2aebdfa2cae82b50a7e79e9516da0f
     Pseudo is Projector augmented-wave + core cor, Zval =  4.0
     Generated using "atomic" code by A. Dal Corso  v.5.1
     Shape of augmentation charge: PSQ
     Using radial grid of 1073 points,  4 beta functions with:
                l(1) =   0
                l(2) =   0
                l(3) =   1
                l(4) =   1
     Q(r) pseudized with 0 coefficients

     PseudoPot. # 4 for H  read from file:
     /home/ys/qepseudo/SSSP_1.3.0_PBE_efficiency/H.pbe-rrkjus_psl.1.0.0.UPF
     MD5 check sum: f52b6d4d1c606e5624b1dc7b2218f220
     Pseudo is Ultrasoft, Zval =  1.0
     Generated using "atomic" code by A. Dal Corso  v.5.1
     Using radial grid of  929 points,  2 beta functions with:
                l(1) =   0
                l(2) =   0
     Q(r) pseudized with 0 coefficients

     atomic species   valence    mass     pseudopotential
     Zn               20.00    65.38000     Zn( 1.00)
     N                 5.00    14.00674     N ( 1.00)
     C                 4.00    12.01070     C ( 1.00)
     H                 1.00     1.00794     H ( 1.00)

     No symmetry found

                                    s                        frac. trans.

      isym =  1     identity

 cryst.   s( 1) = (     1          0          0      )
                  (     0          1          0      )
                  (     0          0          1      )

 cart.    s( 1) = (  1.0000000  0.0000000  0.0000000 )
                  (  0.0000000  1.0000000 -0.0000000 )
                  (  0.0000000  0.0000000  1.0000000 )

   Cartesian axes

     site n.     atom                  positions (alat units)
         1        Zn     tau(   1) = (   0.1250000   0.1341203   0.0774344  )
         2        Zn     tau(   2) = (   0.1250000   0.6706017   0.0774344  )
         3        Zn     tau(   3) = (   0.1254355  -0.0000659   0.3663588  )
         4        Zn     tau(   4) = (   0.1254363   0.5365404   0.3662887  )
         5        Zn     tau(   5) = (   0.1252702  -0.1341656   0.6251262  )
         6        Zn     tau(   6) = (   0.1252777   0.4024072   0.6251464  )
         7        Zn     tau(   7) = (   0.1250000   0.4023610   0.0774344  )
         8        Zn     tau(   8) = (   0.1250000   0.9388424   0.0774344  )
         9        Zn     tau(   9) = (   0.1254456   0.2682606   0.3663796  )
        10        Zn     tau(  10) = (   0.1254350   0.8047243   0.3662418  )
        11        Zn     tau(  11) = (   0.1252783   0.1341187   0.6251453  )
        12        Zn     tau(  12) = (   0.1252697   0.6706189   0.6251228  )
        13        Zn     tau(  13) = (   0.6250000   0.1341203   0.0774344  )
        14        Zn     tau(  14) = (   0.6250000   0.6706017   0.0774344  )
        15        Zn     tau(  15) = (   0.6245281  -0.0000638   0.3665247  )
        16        Zn     tau(  16) = (   0.6245270   0.5365419   0.3664904  )
        17        Zn     tau(  17) = (   0.6247150  -0.1341737   0.6252632  )
        18        Zn     tau(  18) = (   0.6247105   0.4024094   0.6252948  )
        19        Zn     tau(  19) = (   0.6250000   0.4023610   0.0774344  )
        20        Zn     tau(  20) = (   0.6250000   0.9388424   0.0774344  )
        21        Zn     tau(  21) = (   0.6245216   0.2682681   0.3665651  )
        22        Zn     tau(  22) = (   0.6245321   0.8047117   0.3664232  )
        23        Zn     tau(  23) = (   0.6247131   0.1341157   0.6252902  )
        24        Zn     tau(  24) = (   0.6247175   0.6706215   0.6252710  )
        25        Zn     tau(  25) = (   0.3750000   0.0000000   0.1548688  )
        26        Zn     tau(  26) = (   0.3750000   0.5364814   0.1548688  )
        27        Zn     tau(  27) = (   0.3745046  -0.1341714   0.3889500  )
        28        Zn     tau(  28) = (   0.3745046   0.4024249   0.3889898  )
        29        Zn     tau(  29) = (   0.3746919  -0.2682568   0.6329084  )
        30        Zn     tau(  30) = (   0.3746970   0.2682757   0.6328984  )
        31        Zn     tau(  31) = (   0.3750000   0.2682407   0.1548688  )
        32        Zn     tau(  32) = (   0.3750000   0.8047221   0.1548688  )
        33        Zn     tau(  33) = (   0.3745120   0.1340709   0.3890099  )
        34        Zn     tau(  34) = (   0.3744965   0.6706470   0.3889242  )
        35        Zn     tau(  35) = (   0.3746988  -0.0000299   0.6328957  )
        36        Zn     tau(  36) = (   0.3746947   0.5365025   0.6329113  )
        37        Zn     tau(  37) = (   0.8750000   0.0000000   0.1548688  )
        38        Zn     tau(  38) = (   0.8750000   0.5364814   0.1548688  )
        39        Zn     tau(  39) = (   0.8755371  -0.1341797   0.3891205  )
        40        Zn     tau(  40) = (   0.8755441   0.4024177   0.3891626  )
        41        Zn     tau(  41) = (   0.8753258  -0.2682562   0.6328998  )
        42        Zn     tau(  42) = (   0.8753266   0.2682699   0.6328854  )
        43        Zn     tau(  43) = (   0.8750000   0.2682407   0.1548688  )
        44        Zn     tau(  44) = (   0.8750000   0.8047221   0.1548688  )
        45        Zn     tau(  45) = (   0.8755369   0.1340755   0.3891857  )
        46        Zn     tau(  46) = (   0.8755419   0.6706575   0.3890923  )
        47        Zn     tau(  47) = (   0.8753223  -0.0000330   0.6328793  )
        48        Zn     tau(  48) = (   0.8753273   0.5365108   0.6329031  )
        49        C      tau(  49) = (   0.3946503   0.2038193   1.5692121  )
        50        C      tau(  50) = (   0.3932879   0.2148218   1.4235578  )
        51        C      tau(  51) = (   0.4956854   0.2897797   1.3542888  )
        52        C      tau(  52) = (   0.2895507   0.1510200   1.3456405  )
        53        C      tau(  53) = (   0.4944772   0.3006047   1.2125196  )
        54        C      tau(  54) = (   0.2881611   0.1617106   1.2038627  )
        55        C      tau(  55) = (   0.3906370   0.2367795   1.1341898  )
        56        N      tau(  56) = (   0.3956604   0.1947880   1.6887175  )
        57        N      tau(  57) = (   0.3893307   0.2474599   0.9941290  )
        58        H      tau(  58) = (   0.3152741   0.2021877   0.9376818  )
        59        H      tau(  59) = (   0.4622386   0.3011164   0.9438549  )
        60        H      tau(  60) = (   0.2096236   0.0927788   1.3978428  )
        61        H      tau(  61) = (   0.5765115   0.3397498   1.4132332  )
        62        H      tau(  62) = (   0.2069084   0.1116748   1.1452259  )
        63        H      tau(  63) = (   0.5746129   0.3591948   1.1606609  )

     DFT-D3 Dispersion Correction (3-body terms):
       Reference C6 values for interpolation:

         atom   Coordination number   C6
         H          0.912             6.05
         H          0.000            15.18
         C          0.000            98.23
         C          0.987            86.49
         C          1.998            58.72
         C          2.999            51.56
         C          3.984            36.41
         N          0.000            50.54
         N          0.994            44.25
         N          2.014            39.35
         N          2.990            31.16
         Zn         0.000           681.04
         Zn         1.942           306.91

       Values used:

         atom   Coordination number  R0_AB[au]  C6      C8
         Zn         4.540            3.053    306.91  23930.67
         Zn         4.543            3.053    306.91  23930.67
         Zn         6.755            3.053    306.91  23930.67
         Zn         6.757            3.053    306.91  23930.67
         Zn         5.959            3.053    306.91  23930.67
         Zn         5.959            3.053    306.91  23930.67
         Zn         4.541            3.053    306.91  23930.67
[...]
     atom   24 type  1   force =     0.00001688   -0.00012723   -0.00002530
     atom   25 type  1   force =    -0.00000000   -0.00000000   -0.00000000
     atom   26 type  1   force =    -0.00000000    0.00000000    0.00000000
     atom   27 type  1   force =    -0.00005686    0.00001980   -0.00001029
     atom   28 type  1   force =    -0.00007102   -0.00002180    0.00016010
     atom   29 type  1   force =    -0.00005982   -0.00008763    0.00002163
     atom   30 type  1   force =    -0.00007428    0.00007817   -0.00009872
     atom   31 type  1   force =    -0.00000000   -0.00000000    0.00000000
     atom   32 type  1   force =    -0.00000000    0.00000000   -0.00000000
     atom   33 type  1   force =    -0.00007454    0.00005518    0.00006791
     atom   34 type  1   force =    -0.00005405   -0.00006023    0.00006370
     atom   35 type  1   force =    -0.00006810    0.00013862    0.00001929
     atom   36 type  1   force =    -0.00006841   -0.00013201   -0.00001341
     atom   37 type  1   force =     0.00000000   -0.00000000   -0.00000000
     atom   38 type  1   force =     0.00000000    0.00000000    0.00000000
     atom   39 type  1   force =     0.00006960    0.00000301   -0.00016966
     atom   40 type  1   force =     0.00005966   -0.00000580    0.00000562
     atom   41 type  1   force =     0.00006068   -0.00006535   -0.00009411
     atom   42 type  1   force =     0.00008200    0.00007135   -0.00007339
     atom   43 type  1   force =     0.00000000   -0.00000000    0.00000000
     atom   44 type  1   force =     0.00000000    0.00000000   -0.00000000
     atom   45 type  1   force =     0.00006478    0.00001210   -0.00007311
     atom   46 type  1   force =     0.00005614   -0.00001415   -0.00009657
     atom   47 type  1   force =     0.00008200    0.00007895   -0.00008726
     atom   48 type  1   force =     0.00006555   -0.00009266   -0.00007097
     atom   49 type  3   force =    -0.00000077    0.00000418   -0.00000301
     atom   50 type  3   force =    -0.00000196    0.00000596    0.00000826
     atom   51 type  3   force =     0.00000282    0.00000293    0.00001663
     atom   52 type  3   force =    -0.00000475    0.00000035    0.00001466
     atom   53 type  3   force =     0.00001639    0.00000289    0.00002388
     atom   54 type  3   force =    -0.00000946   -0.00001203    0.00002446
     atom   55 type  3   force =     0.00000876   -0.00001166    0.00000287
     atom   56 type  2   force =     0.00000022    0.00000157   -0.00000109
     atom   57 type  2   force =     0.00001294   -0.00001236   -0.00002016
     atom   58 type  4   force =    -0.00000165    0.00000168   -0.00000274
     atom   59 type  4   force =     0.00000044    0.00000210   -0.00000236
     atom   60 type  4   force =     0.00000227    0.00000236   -0.00000136
     atom   61 type  4   force =    -0.00000277   -0.00000150   -0.00000170
     atom   62 type  4   force =    -0.00000039   -0.00000069    0.00000268
     atom   63 type  4   force =     0.00000152   -0.00000013    0.00000208

     DFT-D3 dispersion contribution to forces:
     atom    1 type  1   force =     0.00000091    0.00000029    0.00150352
     atom    2 type  1   force =     0.00000284   -0.00000256    0.00149726
     atom    3 type  1   force =     0.00003356    0.00001967    0.00161372
     atom    4 type  1   force =     0.00002550   -0.00001186    0.00155020
     atom    5 type  1   force =     0.00010197    0.00009673   -0.00104741
     atom    6 type  1   force =     0.00036343   -0.00024044   -0.00062246
     atom    7 type  1   force =    -0.00000015   -0.00000115    0.00149522
     atom    8 type  1   force =     0.00000096   -0.00000326    0.00150610
     atom    9 type  1   force =    -0.00007177    0.00000551    0.00152184
     atom   10 type  1   force =     0.00006654   -0.00000132    0.00157589
     atom   11 type  1   force =     0.00045563    0.00016042   -0.00049587
     atom   12 type  1   force =     0.00006972   -0.00004146   -0.00112249
     atom   13 type  1   force =     0.00000119    0.00000069    0.00149451
     atom   14 type  1   force =    -0.00000167   -0.00000391    0.00150100
     atom   15 type  1   force =    -0.00004208    0.00002027    0.00155333
     atom   16 type  1   force =    -0.00002178   -0.00000691    0.00162411
     atom   17 type  1   force =    -0.00009071    0.00008610   -0.00104699
     atom   18 type  1   force =    -0.00040424   -0.00024220   -0.00048456
     atom   19 type  1   force =    -0.00000148   -0.00000108    0.00149847
     atom   20 type  1   force =    -0.00000289   -0.00000417    0.00150106
     atom   21 type  1   force =     0.00004405    0.00000592    0.00154508
     atom   22 type  1   force =    -0.00006895   -0.00000600    0.00158854
     atom   23 type  1   force =    -0.00048297    0.00027699   -0.00032929
     atom   24 type  1   force =    -0.00006857   -0.00007084   -0.00108299
     atom   25 type  1   force =    -0.00000736    0.00000013    0.00271443
     atom   26 type  1   force =    -0.00000150   -0.00000971    0.00271944
     atom   27 type  1   force =    -0.00001317    0.00001257   -0.00247719
     atom   28 type  1   force =    -0.00006258   -0.00001322   -0.00236401
     atom   29 type  1   force =    -0.00002828    0.00001642   -0.00204319
     atom   30 type  1   force =     0.00002982   -0.00008718   -0.00057334
     atom   31 type  1   force =    -0.00000525   -0.00000178    0.00273091
     atom   32 type  1   force =    -0.00000275   -0.00000723    0.00270801
     atom   33 type  1   force =     0.00004677    0.00001973   -0.00234623
     atom   34 type  1   force =    -0.00001973   -0.00001866   -0.00247441
     atom   35 type  1   force =    -0.00002539    0.00057827   -0.00127716
     atom   36 type  1   force =     0.00003237   -0.00049492   -0.00151046
     atom   37 type  1   force =     0.00000916   -0.00000791    0.00268578
     atom   38 type  1   force =     0.00000266    0.00000044    0.00269062
     atom   39 type  1   force =     0.00000192   -0.00000242   -0.00243683
     atom   40 type  1   force =     0.00005398   -0.00000391   -0.00244101
     atom   41 type  1   force =     0.00002480   -0.00000866   -0.00214513
     atom   42 type  1   force =     0.00000518   -0.00000039   -0.00201183
     atom   43 type  1   force =     0.00000518   -0.00000071    0.00268561
     atom   44 type  1   force =     0.00000591   -0.00000611    0.00269547
     atom   45 type  1   force =    -0.00004474    0.00001050   -0.00242006
     atom   46 type  1   force =     0.00002887   -0.00001867   -0.00244329
     atom   47 type  1   force =     0.00002233    0.00002159   -0.00207125
     atom   48 type  1   force =     0.00002613   -0.00001919   -0.00208349
     atom   49 type  3   force =     0.00000095   -0.00001356    0.00012619
     atom   50 type  3   force =    -0.00000796   -0.00000354   -0.00003017
     atom   51 type  3   force =     0.00012692    0.00007998   -0.00008462
     atom   52 type  3   force =    -0.00011318   -0.00007011   -0.00009778
     atom   53 type  3   force =     0.00018001    0.00009578   -0.00012982
     atom   54 type  3   force =    -0.00018176   -0.00013595   -0.00017076
     atom   55 type  3   force =    -0.00000001    0.00001415   -0.00077561
     atom   56 type  2   force =    -0.00000469    0.00004154   -0.00032459
     atom   57 type  2   force =    -0.00000092    0.00001004   -0.00170769
     atom   58 type  4   force =     0.00003732    0.00003292   -0.00170272
     atom   59 type  4   force =    -0.00002623   -0.00003327   -0.00165796
     atom   60 type  4   force =    -0.00001387    0.00000183    0.00001721
     atom   61 type  4   force =     0.00000427   -0.00000510    0.00001925
     atom   62 type  4   force =     0.00000444    0.00000566   -0.00017783
     atom   63 type  4   force =     0.00000137   -0.00001477   -0.00015228

     Total force =     0.006942     Total SCF correction =     0.000756

     DFT-D3 dispersion Force =     0.013631
     SCF correction compared to forces is large: reduce conv_thr to get better values

     Computing stress (Cartesian axis) and pressure

     negative rho (up, down):  3.136E-03 0.000E+00
          total   stress  (Ry/bohr**3)                   (kbar)     P=      -17.37
  -0.00019777   0.00000103   0.00000004          -29.09        0.15        0.01
   0.00000103  -0.00013357  -0.00000017            0.15      -19.65       -0.03
   0.00000004  -0.00000017  -0.00002287            0.01       -0.03       -3.36

     kinetic stress (kbar)  12436.71    -29.89     -1.95
                              -29.89  12436.49      4.20
                               -1.95      4.20  12431.67

     local   stress (kbar)-946532.69   -740.79    -81.64
                             -740.79-958064.57    224.90
                              -81.64    224.90 955036.14

     nonloc. stress (kbar)  -1166.68      2.04      0.22
                                2.04  -1140.61     -0.59
                                0.22     -0.59  -1183.26

     hartree stress (kbar) 499853.71    272.43     32.07
                              272.43 504833.09    -90.79
                               32.07    -90.79-444291.30

     exc-cor stress (kbar)  -6053.98      1.47      0.12
                                1.47  -6051.80     -0.27
                                0.12     -0.27  -6056.51

     corecor stress (kbar)    -79.72     -0.43     -0.04
                               -0.43    -79.38      0.09
                               -0.04      0.09    -80.42

     ewald   stress (kbar) 441519.55    495.31     51.22
                              495.31 448055.82   -137.58
                               51.22   -137.58-515856.45

     hubbard stress (kbar)      0.00      0.00      0.00
                                0.00      0.00      0.00
                                0.00      0.00      0.00

     DFT-D   stress (kbar)     -5.99      0.01      0.00
                                0.01     -8.69      0.01
                                0.00      0.01     -3.22

     XDM     stress (kbar)      0.00      0.00      0.00
                                0.00      0.00      0.00
                                0.00      0.00      0.00

     dft-nl  stress (kbar)      0.00      0.00      0.00
                                0.00      0.00      0.00
                                0.00      0.00      0.00

     TS-vdW  stress (kbar)      0.00      0.00      0.00
                                0.00      0.00      0.00
                                0.00      0.00      0.00

     MDB     stress (kbar)      0.00      0.00      0.00
                                0.00      0.00      0.00
                                0.00      0.00      0.00

     3D-RISM stress (kbar)      0.00      0.00      0.00
                                0.00      0.00      0.00
                                0.00      0.00      0.00

     Energy error            =      6.7E-05 Ry
     Gradient error          =      1.9E-03 Ry/Bohr

     number of scf cycles    =  25
     number of bfgs steps    =  24

     energy             old  =  -22331.2156844468 Ry
     energy             new  =  -22331.2157511762 Ry

     CASE: energy            _new < energy            _old

     new trust radius        =       0.0311022992 bohr
     new conv_thr            =       0.0000000375 Ry

ATOMIC_POSITIONS (angstrom)
Zn               1.2182900000        1.3071800000        0.7547010000    0   0   0
Zn               1.2182900000        6.5359000000        0.7547010000    0   0   0
Zn               1.2218908601        0.0029110836        3.5987229508
Zn               1.2213029524        5.2282302991        3.5970357032
Zn               1.2243958373       -1.3050963764        6.1139980149
Zn               1.2180879376        3.9220219962        6.1363534552
Zn               1.2182900000        3.9215400000        0.7547010000    0   0   0
Zn               1.2182900000        9.1502600000        0.7547010000    0   0   0
Zn               1.2198518159        2.6161889091        3.5939685009
Zn               1.2222336615        7.8447098328        3.5908068313
Zn               1.2177720046        1.3095088714        6.1163920200
Zn               1.2248471390        6.5375220020        6.1168398307
Zn               6.0914510000        1.3071800000        0.7547010000    0   0   0
Zn               6.0914510000        6.5359000000        0.7547010000    0   0   0
Zn               6.0869800252        0.0040433861        3.5963604163
Zn               6.0880580673        5.2295942105        3.5961283969
Zn               6.0836059439       -1.3045041195        6.1279575702
Zn               6.0864240165        3.9248209996        6.1195962296
Zn               6.0914510000        3.9215400000        0.7547010000    0   0   0
Zn               6.0914510000        9.1502600000        0.7547010000    0   0   0
Zn               6.0903522706        2.6154291292        3.5930915909
Zn               6.0855490156        7.8445104102        3.5900181666
Zn               6.0836868997        1.3127748802        6.1538781073
Zn               6.0855053741        6.5378414554        6.1194889406
Zn               3.6548710000       -0.0000000000        1.5094010000    0   0   0
Zn               3.6548710000        5.2287200000        1.5094010000    0   0   0
Zn               3.6516011769       -1.3034651351        3.7792168574
Zn               3.6507881168        3.9223681241        3.7728519685
Zn               3.6494583135       -2.6131568309        6.1610502117
Zn               3.6429603984        2.6194975705        6.1253774020
Zn               3.6548710000        2.6143600000        1.5094010000    0   0   0
Zn               3.6548710000        7.8430800000        1.5094010000    0   0   0
Zn               3.6553791576        1.3098567365        3.7736003190
Zn               3.6509646103        6.5358396732        3.7769380157
Zn               3.6501176833        0.0105838182        6.1532156143
Zn               3.6466417593        5.2244429740        6.1487950370
Zn               8.5280310000       -0.0000000000        1.5094010000    0   0   0
Zn               8.5280310000        5.2287200000        1.5094010000    0   0   0
Zn               8.5278110118       -1.3053820051        3.7776264286
Zn               8.5308708307        3.9217898535        3.7808762493
Zn               8.5329899378       -2.6135792576        6.1482651524
Zn               8.5295031115        2.6166034913        6.1630512220
Zn               8.5280310000        2.6143600000        1.5094010000    0   0   0
Zn               8.5280310000        7.8430800000        1.5094010000    0   0   0
Zn               8.5288998982        1.3092656235        3.7809679238
Zn               8.5314560128        6.5356403409        3.7764299448
Zn               8.5282872037       -0.0003469687        6.1562888408
Zn               8.5354034118        5.2326554836        6.1559732172
C                3.8462587982        1.9907326126       15.2300627741
C                3.8336797364        2.0953454531       13.8089231655
C                4.8310211107        2.8227310392       13.1298091920
C                2.8252167367        1.4715011410       13.0485173518
C                4.8184299907        2.9281711421       11.7474678103
C                2.8085321827        1.5732583004       11.6665325999
C                3.8018970511        2.3111008362       10.9844571416
N                3.8546705688        1.9030167145       16.3958462445
N                3.7572514936        2.4572809021        9.6228694061
H                3.1227018820        1.9043516989        9.0602215989
H                4.5359483895        2.8590477951        9.1159822862
H                2.0511468552        0.9046153730       13.5635242549
H                5.6162579716        3.3074406410       13.7069847799
H                2.0177897772        1.0848801425       11.0930220142
H                5.5966093434        3.4998192703       11.2379439164

     Writing config-only to output data dir ./tmp/02_Zn100_ABN_topsight_upright.save/ :
     XML data file
     NEW-OLD atomic charge density approx. for the potential

     negative rho (up, down):  3.148E-03 0.000E+00

     Self-consistent Calculation

     iteration #  1     ecut=    40.00 Ry     beta= 0.40
     Davidson diagonalization with overlap

     max_seconds     =  172800.00
     Calculation stopped in k-point loop, point #     1
     Calculation stopped in scf loop at iteration #     0

     Writing config to output data dir ./tmp/02_Zn100_ABN_topsight_upright.save/ :
     XML data file, charge density

     General routines

     Parallel routines

     PAW routines

   This run was terminated on:  14:22:49   1Apr2025

   JOB DONE.