     Program PWSCF v.7.3.1 starts on 24Jan1998 at  0: 2:30

     Waiting for input...
     Reading input from standard input
Warning: card &CELL ignored
Warning: card   CELL_DOFREE = 'ALL' ignored
Warning: card / ignored

     Current dimensions of program PWSCF are:
     Max number of different atomic species (ntypx) = 10
     Max number of k-points (npk) =  40000
     Max angular momentum in pseudopotentials (lmaxx) =  4
     Found identity + (  0.0000 -0.5000  0.0000) symmetry
     This is a supercell, fractional translations are disabled

     R & G space division:  proc/nbgrp/npool/nimage =      30
     Subspace diagonalization in iterative solution of the eigenvalue problem:
     one sub-group per band group will be used

     Using Slab Decomposition

     bravais-lattice index     =            0
     lattice parameter (alat)  =      18.4179  a.u.
     unit-cell volume          =    7929.1084 (a.u.)^3
     number of atoms/cell      =           32
     number of atomic types    =            1
     number of electrons       =       640.00
     number of Kohn-Sham states=          384
     kinetic-energy cutoff     =      30.0000  Ry
     charge density cutoff     =     120.0000  Ry
     scf convergence threshold =      7.3E-07
     mixing beta               =       0.7000
     number of iterations used =            8  plain     mixing
     energy convergence thresh.=      1.0E-05
     force convergence thresh. =      5.0E-04
     Exchange-correlation= SLA  PW   PBE  PBE
                           (   1   4   3   4   0   0   0)
     nstep                     =          100

     celldm(1)=  18.417879  celldm(2)=   0.000000  celldm(3)=   0.000000
     celldm(4)=   0.000000  celldm(5)=   0.000000  celldm(6)=   0.000000

     crystal axes: (cart. coord. in units of alat)
               a(1) = (   1.000000   0.000000   0.000000 )
               a(2) = (   0.000000   0.536481   0.000000 )
               a(3) = (   0.000000  -1.365810   2.365652 )

     reciprocal axes: (cart. coord. in units 2 pi/alat)
               b(1) = (  1.000000  0.000000 -0.000000 )
               b(2) = ( -0.000000  1.863998  1.076180 )
               b(3) = (  0.000000  0.000000  0.422716 )

     PseudoPot. # 1 for Zn read from file:
     /home/ys/qepseudo/SSSP_1.3.0_PBE_efficiency/Zn_pbe_v1.uspp.F.UPF
     MD5 check sum: df62231357ef9e81f77b2b3087fa5675
     Pseudo is Ultrasoft, Zval = 20.0
     Generated by new atomic code, or converted to UPF format
     Using radial grid of  943 points,  6 beta functions with:
                l(1) =   0
                l(2) =   0
                l(3) =   1
                l(4) =   1
                l(5) =   2
                l(6) =   2
     Q(r) pseudized with  8 coefficients,  rinner =    1.100   1.100   1.100
                                                       1.100   1.100

     atomic species   valence    mass     pseudopotential
     Zn               20.00    65.38000     Zn( 1.00)

     No symmetry found

                                    s                        frac. trans.

      isym =  1     identity

 cryst.   s( 1) = (     1          0          0      )
                  (     0          1          0      )
                  (     0          0          1      )

 cart.    s( 1) = (  1.0000000  0.0000000  0.0000000 )
                  (  0.0000000  1.0000000 -0.0000000 )
                  (  0.0000000  0.0000000  1.0000000 )

   Cartesian axes

     site n.     atom                  positions (alat units)
         1        Zn     tau(   1) = (   0.1250000   0.1341203   0.0774344  )
         2        Zn     tau(   2) = (   0.1250000   0.0000000   0.3097376  )
         3        Zn     tau(   3) = (   0.1250000  -0.1341203   0.5420409  )
         4        Zn     tau(   4) = (   0.1250000  -0.2682407   0.7743441  )
         5        Zn     tau(   5) = (   0.1250000   0.4023610   0.0774344  )
         6        Zn     tau(   6) = (   0.1250000   0.2682407   0.3097376  )
         7        Zn     tau(   7) = (   0.1250000   0.1341203   0.5420409  )
         8        Zn     tau(   8) = (   0.1250000   0.0000000   0.7743441  )
         9        Zn     tau(   9) = (   0.6250000   0.1341203   0.0774344  )
        10        Zn     tau(  10) = (   0.6250000   0.0000000   0.3097376  )
        11        Zn     tau(  11) = (   0.6250000  -0.1341203   0.5420409  )
        12        Zn     tau(  12) = (   0.6250000  -0.2682407   0.7743441  )
        13        Zn     tau(  13) = (   0.6250000   0.4023610   0.0774344  )
        14        Zn     tau(  14) = (   0.6250000   0.2682407   0.3097376  )
        15        Zn     tau(  15) = (   0.6250000   0.1341203   0.5420409  )
        16        Zn     tau(  16) = (   0.6250000   0.0000000   0.7743441  )
        17        Zn     tau(  17) = (   0.3750000  -0.0000000   0.1548688  )
        18        Zn     tau(  18) = (   0.3750000  -0.1341203   0.3871721  )
        19        Zn     tau(  19) = (   0.3750000  -0.2682407   0.6194753  )
        20        Zn     tau(  20) = (   0.3750000  -0.4023610   0.8517785  )
        21        Zn     tau(  21) = (   0.3750000   0.2682407   0.1548688  )
        22        Zn     tau(  22) = (   0.3750000   0.1341203   0.3871721  )
        23        Zn     tau(  23) = (   0.3750000  -0.0000000   0.6194753  )
        24        Zn     tau(  24) = (   0.3750000  -0.1341203   0.8517785  )
        25        Zn     tau(  25) = (   0.8750000  -0.0000000   0.1548688  )
        26        Zn     tau(  26) = (   0.8750000  -0.1341203   0.3871721  )
        27        Zn     tau(  27) = (   0.8750000  -0.2682407   0.6194753  )
        28        Zn     tau(  28) = (   0.8750000  -0.4023610   0.8517785  )
        29        Zn     tau(  29) = (   0.8750000   0.2682407   0.1548688  )
        30        Zn     tau(  30) = (   0.8750000   0.1341203   0.3871721  )
        31        Zn     tau(  31) = (   0.8750000  -0.0000000   0.6194753  )
        32        Zn     tau(  32) = (   0.8750000  -0.1341203   0.8517785  )

   Crystallographic axes

     site n.     atom                  positions (cryst. coord.)
         1        Zn     tau(   1) = (  0.1250000  0.3333333  0.0327328  )
         2        Zn     tau(   2) = (  0.1250000  0.3333333  0.1309312  )
         3        Zn     tau(   3) = (  0.1250000  0.3333333  0.2291296  )
         4        Zn     tau(   4) = (  0.1250000  0.3333333  0.3273279  )
         5        Zn     tau(   5) = (  0.1250000  0.8333333  0.0327328  )
         6        Zn     tau(   6) = (  0.1250000  0.8333333  0.1309312  )
         7        Zn     tau(   7) = (  0.1250000  0.8333333  0.2291296  )
         8        Zn     tau(   8) = (  0.1250000  0.8333333  0.3273279  )
         9        Zn     tau(   9) = (  0.6250000  0.3333333  0.0327328  )
        10        Zn     tau(  10) = (  0.6250000  0.3333333  0.1309312  )
        11        Zn     tau(  11) = (  0.6250000  0.3333333  0.2291296  )
        12        Zn     tau(  12) = (  0.6250000  0.3333333  0.3273279  )
        13        Zn     tau(  13) = (  0.6250000  0.8333333  0.0327328  )
        14        Zn     tau(  14) = (  0.6250000  0.8333333  0.1309312  )
        15        Zn     tau(  15) = (  0.6250000  0.8333333  0.2291296  )
        16        Zn     tau(  16) = (  0.6250000  0.8333333  0.3273279  )
        17        Zn     tau(  17) = (  0.3750000  0.1666667  0.0654656  )
        18        Zn     tau(  18) = (  0.3750000  0.1666667  0.1636640  )
        19        Zn     tau(  19) = (  0.3750000  0.1666667  0.2618624  )
        20        Zn     tau(  20) = (  0.3750000  0.1666667  0.3600607  )
        21        Zn     tau(  21) = (  0.3750000  0.6666667  0.0654656  )
        22        Zn     tau(  22) = (  0.3750000  0.6666667  0.1636640  )
        23        Zn     tau(  23) = (  0.3750000  0.6666667  0.2618624  )
        24        Zn     tau(  24) = (  0.3750000  0.6666667  0.3600607  )
        25        Zn     tau(  25) = (  0.8750000  0.1666667  0.0654656  )
        26        Zn     tau(  26) = (  0.8750000  0.1666667  0.1636640  )
        27        Zn     tau(  27) = (  0.8750000  0.1666667  0.2618624  )
        28        Zn     tau(  28) = (  0.8750000  0.1666667  0.3600607  )
        29        Zn     tau(  29) = (  0.8750000  0.6666667  0.0654656  )
        30        Zn     tau(  30) = (  0.8750000  0.6666667  0.1636640  )
        31        Zn     tau(  31) = (  0.8750000  0.6666667  0.2618624  )
        32        Zn     tau(  32) = (  0.8750000  0.6666667  0.3600607  )

     number of k points=     5  Marzari-Vanderbilt smearing, width (Ry)=  0.0200
                       cart. coord. in units 2pi/alat
        k(    1) = (   0.0000000   0.0000000   0.0000000), wk =   0.2222222
        k(    2) = (   0.0000000   0.6213326   0.3587265), wk =   0.4444444
        k(    3) = (   0.3333333   0.0000000   0.0000000), wk =   0.4444444
        k(    4) = (   0.3333333   0.6213326   0.3587265), wk =   0.4444444
        k(    5) = (   0.3333333  -0.6213326  -0.3587265), wk =   0.4444444

                       cryst. coord.
        k(    1) = (   0.0000000   0.0000000   0.0000000), wk =   0.2222222
        k(    2) = (   0.0000000   0.3333333   0.0000000), wk =   0.4444444
        k(    3) = (   0.3333333   0.0000000   0.0000000), wk =   0.4444444
        k(    4) = (   0.3333333   0.3333333   0.0000000), wk =   0.4444444
        k(    5) = (   0.3333333  -0.3333333   0.0000000), wk =   0.4444444

     Initial potential from superposition of free atoms

     starting charge     639.9955, renormalised to     640.0000

     negative rho (up, down):  7.820E-04 0.000E+00
     Starting wfcs are  416 randomized atomic wfcs
[psid00:21750] Set MCA parameter "orte_base_help_aggregate" to 0 to see all help / error messages

     Self-consistent Calculation

     iteration #  1     ecut=    30.00 Ry     beta= 0.70
     Davidson diagonalization with overlap

     ethr =  1.00E-02,  avg # of iterations =  7.2

     Threshold (ethr) on eigenvalues was too large:
     Diagonalizing with lowered threshold

     Davidson diagonalization with overlap

[...]

     negative rho (up, down):  2.832E-03 0.000E+00

     total energy              =  -14766.81871709 Ry
     estimated scf accuracy    <       1.35100682 Ry

[...]

     End of self-consistent calculation

          k = 0.0000 0.0000 0.0000 ( 22019 PWs)   bands (ev):

  -123.7893-123.7890-123.7887-123.7867-123.7864-123.7861-123.7859-123.7853
  -123.7812-123.7812-123.7798-123.7795-123.7792-123.7791-123.7788-123.7778
  -123.4705-123.4703-123.4688-123.4687-123.4685-123.4682-123.4680-123.4678
  -123.4603-123.4602-123.4583-123.4581-123.4580-123.4577-123.4576-123.4572
   -77.9003 -77.8992 -77.8976 -77.8962 -77.8962 -77.8949 -77.8941 -77.8940
   -77.8919 -77.8897 -77.8896 -77.8859 -77.8769 -77.8769 -77.8768 -77.8764
   -77.8761 -77.8737 -77.8694 -77.8666 -77.8666 -77.8659 -77.8659 -77.8655
   -77.8655 -77.8650 -77.8646 -77.8646 -77.8638 -77.8615 -77.8609 -77.8608
   -77.8604 -77.8603 -77.8600 -77.8594 -77.8589 -77.8588 -77.8582 -77.8578
   -77.8541 -77.8541 -77.8527 -77.8526 -77.8514 -77.8492 -77.8463 -77.8402
   -77.5748 -77.5745 -77.5721 -77.5720 -77.5709 -77.5709 -77.5687 -77.5682
[...]
     The local contribution  to forces
     atom    1 type  1   force =    -0.00454994    0.00001262  416.41633945
     atom    2 type  1   force =    -0.01832331   -0.00001266  160.76094707
     atom    3 type  1   force =    -0.01797614    0.00001108 -106.48646080
     atom    4 type  1   force =     0.02663135   -0.00003499 -369.49431307
     atom    5 type  1   force =    -0.00454998    0.00001360  416.41634162
     atom    6 type  1   force =    -0.01832245    0.00002949  160.76094023
     atom    7 type  1   force =    -0.01798671   -0.00002278 -106.48667247
     atom    8 type  1   force =     0.02663338    0.00000559 -369.49419894
     atom    9 type  1   force =     0.00454965    0.00001270  416.42150027
     atom   10 type  1   force =     0.01832339    0.00002877  160.78330366
     atom   11 type  1   force =     0.01799508    0.00000181 -106.42675907
     atom   12 type  1   force =    -0.02664330    0.00000568 -369.42839517
     atom   13 type  1   force =     0.00454969    0.00001360  416.42149820
     atom   14 type  1   force =     0.01832253   -0.00001184  160.78329739
     atom   15 type  1   force =     0.01800582   -0.00001348 -106.42655565
     atom   16 type  1   force =    -0.02664532   -0.00003506 -369.42837415
     atom   17 type  1   force =     0.00408172   -0.00001860  352.05378319
     atom   18 type  1   force =     0.01505473    0.00002815   87.14346569
     atom   19 type  1   force =     0.01584432    0.00002451 -152.37102425
     atom   20 type  1   force =    -0.01099604    0.00001342 -388.07025983
     atom   21 type  1   force =     0.00408174   -0.00001836  352.05378082
     atom   22 type  1   force =     0.01508677   -0.00001441   87.14346291
     atom   23 type  1   force =     0.01583905   -0.00003139 -152.37092305
     atom   24 type  1   force =    -0.01098326   -0.00002470 -388.07009362
     atom   25 type  1   force =    -0.00408204   -0.00001843  352.06848596
     atom   26 type  1   force =    -0.01505495    0.00003438   87.20784874
     atom   27 type  1   force =    -0.01584677   -0.00002527 -152.32425381
     atom   28 type  1   force =     0.01099001    0.00001873 -388.00552022
     atom   29 type  1   force =    -0.00408206   -0.00001842  352.06848302
     atom   30 type  1   force =    -0.01508699   -0.00002048   87.20785052
     atom   31 type  1   force =    -0.01584151    0.00001870 -152.32412319
     atom   32 type  1   force =     0.01097735   -0.00002971 -388.00565068
     The core correction contribution to forces
     atom    1 type  1   force =     0.00000000    0.00000000    0.00000000
     atom    2 type  1   force =     0.00000000    0.00000000    0.00000000
     atom    3 type  1   force =     0.00000000    0.00000000    0.00000000
     atom    4 type  1   force =     0.00000000    0.00000000    0.00000000
     atom    5 type  1   force =     0.00000000    0.00000000    0.00000000
     atom    6 type  1   force =     0.00000000    0.00000000    0.00000000
     atom    7 type  1   force =     0.00000000    0.00000000    0.00000000
     atom    8 type  1   force =     0.00000000    0.00000000    0.00000000
     atom    9 type  1   force =     0.00000000    0.00000000    0.00000000
     atom   10 type  1   force =     0.00000000    0.00000000    0.00000000
     atom   11 type  1   force =     0.00000000    0.00000000    0.00000000
     atom   12 type  1   force =     0.00000000    0.00000000    0.00000000
     atom   13 type  1   force =     0.00000000    0.00000000    0.00000000
     atom   14 type  1   force =     0.00000000    0.00000000    0.00000000
     atom   15 type  1   force =     0.00000000    0.00000000    0.00000000
     atom   16 type  1   force =     0.00000000    0.00000000    0.00000000
     atom   17 type  1   force =     0.00000000    0.00000000    0.00000000
     atom   18 type  1   force =     0.00000000    0.00000000    0.00000000
     atom   19 type  1   force =     0.00000000    0.00000000    0.00000000
     atom   20 type  1   force =     0.00000000    0.00000000    0.00000000
     atom   21 type  1   force =     0.00000000    0.00000000    0.00000000
     atom   22 type  1   force =     0.00000000    0.00000000    0.00000000
     atom   23 type  1   force =     0.00000000    0.00000000    0.00000000
     atom   24 type  1   force =     0.00000000    0.00000000    0.00000000
     atom   25 type  1   force =     0.00000000    0.00000000    0.00000000
     atom   26 type  1   force =     0.00000000    0.00000000    0.00000000
     atom   27 type  1   force =     0.00000000    0.00000000    0.00000000
     atom   28 type  1   force =     0.00000000    0.00000000    0.00000000
     atom   29 type  1   force =     0.00000000    0.00000000    0.00000000
     atom   30 type  1   force =     0.00000000    0.00000000    0.00000000
     atom   31 type  1   force =     0.00000000    0.00000000    0.00000000
     atom   32 type  1   force =     0.00000000    0.00000000    0.00000000
     The Hubbard contrib.    to forces
     atom    1 type  1   force =     0.00000000    0.00000000    0.00000000
     atom    2 type  1   force =     0.00000000    0.00000000    0.00000000
     atom    3 type  1   force =     0.00000000    0.00000000    0.00000000
     atom    4 type  1   force =     0.00000000    0.00000000    0.00000000
     atom    5 type  1   force =     0.00000000    0.00000000    0.00000000
     atom    6 type  1   force =     0.00000000    0.00000000    0.00000000
     atom    7 type  1   force =     0.00000000    0.00000000    0.00000000
     atom    8 type  1   force =     0.00000000    0.00000000    0.00000000
     atom    9 type  1   force =     0.00000000    0.00000000    0.00000000
     atom   10 type  1   force =     0.00000000    0.00000000    0.00000000
     atom   11 type  1   force =     0.00000000    0.00000000    0.00000000
     atom   12 type  1   force =     0.00000000    0.00000000    0.00000000
     atom   13 type  1   force =     0.00000000    0.00000000    0.00000000
     atom   14 type  1   force =     0.00000000    0.00000000    0.00000000
     atom   15 type  1   force =     0.00000000    0.00000000    0.00000000
     atom   16 type  1   force =     0.00000000    0.00000000    0.00000000
     atom   17 type  1   force =     0.00000000    0.00000000    0.00000000
     atom   18 type  1   force =     0.00000000    0.00000000    0.00000000
     atom   19 type  1   force =     0.00000000    0.00000000    0.00000000
     atom   20 type  1   force =     0.00000000    0.00000000    0.00000000
     atom   21 type  1   force =     0.00000000    0.00000000    0.00000000
     atom   22 type  1   force =     0.00000000    0.00000000    0.00000000
     atom   23 type  1   force =     0.00000000    0.00000000    0.00000000
     atom   24 type  1   force =     0.00000000    0.00000000    0.00000000
     atom   25 type  1   force =     0.00000000    0.00000000    0.00000000
     atom   26 type  1   force =     0.00000000    0.00000000    0.00000000
     atom   27 type  1   force =     0.00000000    0.00000000    0.00000000
     atom   28 type  1   force =     0.00000000    0.00000000    0.00000000
     atom   29 type  1   force =     0.00000000    0.00000000    0.00000000
     atom   30 type  1   force =     0.00000000    0.00000000    0.00000000
     atom   31 type  1   force =     0.00000000    0.00000000    0.00000000
     atom   32 type  1   force =     0.00000000    0.00000000    0.00000000
     The SCF correction term to forces
     atom    1 type  1   force =     0.00000000   -0.00000000   -0.00000000
     atom    2 type  1   force =    -0.00000000   -0.00000000   -0.00000000
     atom    3 type  1   force =    -0.00000000   -0.00000000    0.00000237
     atom    4 type  1   force =    -0.00000000   -0.00000000    0.00001048
     atom    5 type  1   force =     0.00000000   -0.00000000   -0.00000000
     atom    6 type  1   force =    -0.00000000   -0.00000000   -0.00000000
     atom    7 type  1   force =    -0.00000000    0.00000000    0.00000237
     atom    8 type  1   force =    -0.00000000   -0.00000000    0.00001048
     atom    9 type  1   force =    -0.00000000   -0.00000000   -0.00000000
     atom   10 type  1   force =     0.00000000   -0.00000000   -0.00000000
     atom   11 type  1   force =     0.00000000    0.00000000   -0.00000674
     atom   12 type  1   force =     0.00000000   -0.00000000    0.00001371
     atom   13 type  1   force =    -0.00000000   -0.00000000   -0.00000000
     atom   14 type  1   force =     0.00000000   -0.00000000   -0.00000000
     atom   15 type  1   force =     0.00000000    0.00000000   -0.00000674
     atom   16 type  1   force =     0.00000000   -0.00000000    0.00001370
     atom   17 type  1   force =     0.00000000   -0.00000000   -0.00000000
     atom   18 type  1   force =     0.00000000    0.00000000   -0.00000000
     atom   19 type  1   force =    -0.00000000    0.00000000   -0.00002030
     atom   20 type  1   force =    -0.00000000    0.00000000    0.00004108
     atom   21 type  1   force =     0.00000000   -0.00000000   -0.00000000
     atom   22 type  1   force =     0.00000000    0.00000000   -0.00000000
     atom   23 type  1   force =    -0.00000000    0.00000000   -0.00002030
     atom   24 type  1   force =    -0.00000000    0.00000000    0.00004108
     atom   25 type  1   force =    -0.00000000   -0.00000000    0.00000000
     atom   26 type  1   force =    -0.00000000    0.00000000    0.00000000
     atom   27 type  1   force =     0.00000000    0.00000000    0.00005841
     atom   28 type  1   force =     0.00000000   -0.00000000   -0.00002445
     atom   29 type  1   force =    -0.00000000   -0.00000000    0.00000000
     atom   30 type  1   force =    -0.00000000    0.00000000    0.00000000
     atom   31 type  1   force =     0.00000000    0.00000000    0.00005841
     atom   32 type  1   force =     0.00000000   -0.00000000   -0.00002445

     Total force =     0.000699     Total SCF correction =     0.000114
     SCF correction compared to forces is large: reduce conv_thr to get better values

     Computing stress (Cartesian axis) and pressure

          total   stress  (Ry/bohr**3)                   (kbar)     P=     -301.85
  -0.00207468   0.00000000   0.00000000         -305.20        0.00        0.00
   0.00000000  -0.00213064   0.00000234            0.00     -313.43        0.34
   0.00000000   0.00000234  -0.00195051            0.00        0.34     -286.93

     kinetic stress (kbar)  16035.15      0.00     -0.00
                                0.00  15973.19     -0.02
                               -0.00     -0.02  16052.85

     local   stress (kbar)**********     -0.00      0.00
                               -0.00**********      0.18
                                0.00      0.181322233.25

     nonloc. stress (kbar)  -1973.39      0.00      0.00
                                0.00  -1946.14      0.28
                                0.00      0.28  -1990.21

     hartree stress (kbar) 688502.54      0.00     -0.00
                                0.00 695732.03     -0.09
                               -0.00     -0.09-617083.21

     exc-cor stress (kbar)  -8012.51      0.00      0.00
                                0.00  -8008.36     -0.00
                                0.00     -0.00  -8016.14

     corecor stress (kbar)      0.00      0.00      0.00
                                0.00      0.00      0.00
                                0.00      0.00      0.00

     ewald   stress (kbar) 610169.41     -0.00     -0.00
                               -0.00 619812.39      0.00
                               -0.00      0.00-711483.48

     hubbard stress (kbar)      0.00      0.00      0.00
                                0.00      0.00      0.00
                                0.00      0.00      0.00

     DFT-D   stress (kbar)      0.00      0.00      0.00
                                0.00      0.00      0.00
                                0.00      0.00      0.00

     XDM     stress (kbar)      0.00      0.00      0.00
                                0.00      0.00      0.00
                                0.00      0.00      0.00

     dft-nl  stress (kbar)      0.00      0.00      0.00
                                0.00      0.00      0.00
                                0.00      0.00      0.00

     TS-vdW  stress (kbar)      0.00      0.00      0.00
                                0.00      0.00      0.00
                                0.00      0.00      0.00

     MDB     stress (kbar)      0.00      0.00      0.00
                                0.00      0.00      0.00
                                0.00      0.00      0.00

     3D-RISM stress (kbar)      0.00      0.00      0.00
                                0.00      0.00      0.00
                                0.00      0.00      0.00

     Energy error            =      1.6E-06 Ry
     Gradient error          =      3.1E-04 Ry/Bohr

     bfgs converged in  22 scf cycles and  21 bfgs steps
     (criteria: energy <  1.0E-05 Ry, force <  5.0E-04 Ry/Bohr)

     End of BFGS Geometry Optimization

     Final energy             =  -14767.6261853059 Ry

     File ./tmp/Zn100_2x2x4_relax_ecutrho250_ecutwfc25.bfgs deleted, as requested
Begin final coordinates

ATOMIC_POSITIONS (angstrom)
Zn               1.2182902100        1.3071799410        0.7547006760    0   0   0
Zn               1.2182902100        0.0000000130        3.0188027260    0   0   0
Zn               1.2182902100       -1.3071799150        5.6635843964    0   0   1
Zn               1.2182902100       -2.6143598430        8.3200050611    0   0   1
Zn               1.2182902100        3.9215397970        0.7547006760    0   0   0
Zn               1.2182902100        2.6143598690        3.0188027260    0   0   0
Zn               1.2182902100        1.3071799410        5.6635870959    0   0   1
Zn               1.2182902100        0.0000000130        8.3200036769    0   0   1
Zn               6.0914510490        1.3071799410        0.7547006760    0   0   0
Zn               6.0914510490        0.0000000130        3.0188027260    0   0   0
Zn               6.0914510490       -1.3071799150        5.6630043427    0   0   1
Zn               6.0914510490       -2.6143598430        8.3185604215    0   0   1
Zn               6.0914510490        3.9215397970        0.7547006760    0   0   0
Zn               6.0914510490        2.6143598690        3.0188027260    0   0   0
Zn               6.0914510490        1.3071799410        5.6630017222    0   0   1
Zn               6.0914510490        0.0000000130        8.3185602580    0   0   1
Zn               3.6548706290       -0.0000000130        1.5094013740    0   0   0
Zn               3.6548706290       -1.3071799410        3.7735034240    0   0   0
Zn               3.6548706290       -2.6143598690        6.0733719239    0   0   1
Zn               3.6548706290       -3.9215397970        8.4713818498    0   0   1
Zn               3.6548706290        2.6143598430        1.5094013740    0   0   0
Zn               3.6548706290        1.3071799150        3.7735034240    0   0   0
Zn               3.6548706290       -0.0000000130        6.0733703385    0   0   1
Zn               3.6548706290       -1.3071799410        8.4713793320    0   0   1
Zn               8.5280314680       -0.0000000130        1.5094013740    0   0   0
Zn               8.5280314680       -1.3071799410        3.7735034240    0   0   0
Zn               8.5280314680       -2.6143598690        6.0714703104    0   0   1
Zn               8.5280314680       -3.9215397970        8.4711646246    0   0   1
Zn               8.5280314680        2.6143598430        1.5094013740    0   0   0
Zn               8.5280314680        1.3071799150        3.7735034240    0   0   0
Zn               8.5280314680       -0.0000000130        6.0714682510    0   0   1
Zn               8.5280314680       -1.3071799410        8.4711666005    0   0   1
End final coordinates

     Writing all to output data dir ./tmp/Zn100_2x2x4_relax_ecutrho250_ecutwfc25.save/ :
     XML data file, charge density, pseudopotentials, collected wavefunctions

     General routines

     Parallel routines

   This run was terminated on:   2: 5:58  24Jan1998

   JOB DONE.
Note: The following floating-point exceptions are signalling: IEEE_DENORMAL
Note: The following floating-point exceptions are signalling: IEEE_DENORMAL
Note: The following floating-point exceptions are signalling: IEEE_DENORMAL
Note: The following floating-point exceptions are signalling: IEEE_DENORMAL
Note: The following floating-point exceptions are signalling: IEEE_DENORMAL
Note: The following floating-point exceptions are signalling: IEEE_DENORMAL
Note: The following floating-point exceptions are signalling: IEEE_DENORMAL