     Program PWSCF v.7.3.1 starts on 17Mar2025 at 17:18: 9

     Waiting for input...
     Reading input from standard input
Warning: card &CELL ignored
Warning: card   CELL_DOFREE = 'ALL' ignored
Warning: card / ignored

     Current dimensions of program PWSCF are:
     Max number of different atomic species (ntypx) = 10
     Max number of k-points (npk) =  40000
     Max angular momentum in pseudopotentials (lmaxx) =  4
     Found identity + (  0.0000  0.5000  0.0000) symmetry
     This is a supercell, fractional translations are disabled

     R & G space division:  proc/nbgrp/npool/nimage =      30
     Subspace diagonalization in iterative solution of the eigenvalue problem:
     one sub-group per band group will be used

     Using Slab Decomposition

     bravais-lattice index     =            0
     lattice parameter (alat)  =      18.4179  a.u.
     unit-cell volume          =   15858.2170 (a.u.)^3
     number of atoms/cell      =           64
     number of atomic types    =            1
     number of electrons       =      1280.00
     number of Kohn-Sham states=          768
     kinetic-energy cutoff     =      30.0000  Ry
     charge density cutoff     =     120.0000  Ry
     scf convergence threshold =      7.3E-07
     mixing beta               =       0.7000
     number of iterations used =            8  plain     mixing
     energy convergence thresh.=      1.0E-05
     force convergence thresh. =      5.0E-04
     Exchange-correlation= SLA  PW   PBE  PBE
                           (   1   4   3   4   0   0   0)
     nstep                     =          100

     celldm(1)=  18.417879  celldm(2)=   0.000000  celldm(3)=   0.000000
     celldm(4)=   0.000000  celldm(5)=   0.000000  celldm(6)=   0.000000

     crystal axes: (cart. coord. in units of alat)
               a(1) = (   1.000000   0.000000   0.000000 )
               a(2) = (   0.000000   1.072963   0.000000 )
               a(3) = (   0.000000  -1.365810   2.365652 )

     reciprocal axes: (cart. coord. in units 2 pi/alat)
               b(1) = (  1.000000  0.000000 -0.000000 )
               b(2) = ( -0.000000  0.931999  0.538090 )
               b(3) = (  0.000000  0.000000  0.422716 )

     PseudoPot. # 1 for Zn read from file:
     /home/ys/qepseudo/SSSP_1.3.0_PBE_efficiency/Zn_pbe_v1.uspp.F.UPF
     MD5 check sum: df62231357ef9e81f77b2b3087fa5675
     Pseudo is Ultrasoft, Zval = 20.0
     Generated by new atomic code, or converted to UPF format
     Using radial grid of  943 points,  6 beta functions with:
                l(1) =   0
                l(2) =   0
                l(3) =   1
                l(4) =   1
                l(5) =   2
                l(6) =   2
     Q(r) pseudized with  8 coefficients,  rinner =    1.100   1.100   1.100
                                                       1.100   1.100

     atomic species   valence    mass     pseudopotential
     Zn               20.00    65.38000     Zn( 1.00)

     No symmetry found

                                    s                        frac. trans.

      isym =  1     identity

 cryst.   s( 1) = (     1          0          0      )
                  (     0          1          0      )
                  (     0          0          1      )

 cart.    s( 1) = (  1.0000000  0.0000000  0.0000000 )
                  (  0.0000000  1.0000000 -0.0000000 )
                  (  0.0000000  0.0000000  1.0000000 )

   Cartesian axes

     site n.     atom                  positions (alat units)
         1        Zn     tau(   1) = (   0.1250000   0.1341203   0.0774344  )
         2        Zn     tau(   2) = (   0.1250000   0.6706017   0.0774344  )
         3        Zn     tau(   3) = (   0.1250000   0.0000000   0.3097376  )
         4        Zn     tau(   4) = (   0.1250000   0.5364813   0.3097376  )
         5        Zn     tau(   5) = (   0.1250000  -0.1341203   0.5420409  )
         6        Zn     tau(   6) = (   0.1250000   0.4023610   0.5420409  )
         7        Zn     tau(   7) = (   0.1250000  -0.2682407   0.7743441  )
         8        Zn     tau(   8) = (   0.1250000   0.2682407   0.7743441  )
         9        Zn     tau(   9) = (   0.1250000   0.4023610   0.0774344  )
        10        Zn     tau(  10) = (   0.1250000   0.9388423   0.0774344  )
        11        Zn     tau(  11) = (   0.1250000   0.2682407   0.3097376  )
        12        Zn     tau(  12) = (   0.1250000   0.8047220   0.3097376  )
        13        Zn     tau(  13) = (   0.1250000   0.1341203   0.5420409  )
        14        Zn     tau(  14) = (   0.1250000   0.6706017   0.5420409  )
        15        Zn     tau(  15) = (   0.1250000  -0.0000000   0.7743441  )
        16        Zn     tau(  16) = (   0.1250000   0.5364813   0.7743441  )
        17        Zn     tau(  17) = (   0.6250000   0.1341203   0.0774344  )
        18        Zn     tau(  18) = (   0.6250000   0.6706017   0.0774344  )
        19        Zn     tau(  19) = (   0.6250000   0.0000000   0.3097376  )
        20        Zn     tau(  20) = (   0.6250000   0.5364813   0.3097376  )
        21        Zn     tau(  21) = (   0.6250000  -0.1341203   0.5420409  )
        22        Zn     tau(  22) = (   0.6250000   0.4023610   0.5420409  )
        23        Zn     tau(  23) = (   0.6250000  -0.2682407   0.7743441  )
        24        Zn     tau(  24) = (   0.6250000   0.2682407   0.7743441  )
        25        Zn     tau(  25) = (   0.6250000   0.4023610   0.0774344  )
        26        Zn     tau(  26) = (   0.6250000   0.9388423   0.0774344  )
        27        Zn     tau(  27) = (   0.6250000   0.2682407   0.3097376  )
        28        Zn     tau(  28) = (   0.6250000   0.8047220   0.3097376  )
        29        Zn     tau(  29) = (   0.6250000   0.1341203   0.5420409  )
        30        Zn     tau(  30) = (   0.6250000   0.6706017   0.5420409  )
        31        Zn     tau(  31) = (   0.6250000  -0.0000000   0.7743441  )
        32        Zn     tau(  32) = (   0.6250000   0.5364813   0.7743441  )
        33        Zn     tau(  33) = (   0.3750000  -0.0000000   0.1548688  )
        34        Zn     tau(  34) = (   0.3750000   0.5364813   0.1548688  )
        35        Zn     tau(  35) = (   0.3750000  -0.1341203   0.3871721  )
        36        Zn     tau(  36) = (   0.3750000   0.4023610   0.3871721  )
        37        Zn     tau(  37) = (   0.3750000  -0.2682407   0.6194753  )
        38        Zn     tau(  38) = (   0.3750000   0.2682407   0.6194753  )
        39        Zn     tau(  39) = (   0.3750000  -0.4023610   0.8517785  )
        40        Zn     tau(  40) = (   0.3750000   0.1341203   0.8517785  )
        41        Zn     tau(  41) = (   0.3750000   0.2682407   0.1548688  )
        42        Zn     tau(  42) = (   0.3750000   0.8047220   0.1548688  )
        43        Zn     tau(  43) = (   0.3750000   0.1341203   0.3871721  )
        44        Zn     tau(  44) = (   0.3750000   0.6706017   0.3871721  )
        45        Zn     tau(  45) = (   0.3750000  -0.0000000   0.6194753  )
        46        Zn     tau(  46) = (   0.3750000   0.5364813   0.6194753  )
        47        Zn     tau(  47) = (   0.3750000  -0.1341203   0.8517785  )
        48        Zn     tau(  48) = (   0.3750000   0.4023610   0.8517785  )
        49        Zn     tau(  49) = (   0.8750000  -0.0000000   0.1548688  )
        50        Zn     tau(  50) = (   0.8750000   0.5364813   0.1548688  )
        51        Zn     tau(  51) = (   0.8750000  -0.1341203   0.3871721  )
        52        Zn     tau(  52) = (   0.8750000   0.4023610   0.3871721  )
        53        Zn     tau(  53) = (   0.8750000  -0.2682407   0.6194753  )
        54        Zn     tau(  54) = (   0.8750000   0.2682407   0.6194753  )
        55        Zn     tau(  55) = (   0.8750000  -0.4023610   0.8517785  )
        56        Zn     tau(  56) = (   0.8750000   0.1341203   0.8517785  )
        57        Zn     tau(  57) = (   0.8750000   0.2682407   0.1548688  )
        58        Zn     tau(  58) = (   0.8750000   0.8047220   0.1548688  )
        59        Zn     tau(  59) = (   0.8750000   0.1341203   0.3871721  )
        60        Zn     tau(  60) = (   0.8750000   0.6706017   0.3871721  )
        61        Zn     tau(  61) = (   0.8750000  -0.0000000   0.6194753  )
        62        Zn     tau(  62) = (   0.8750000   0.5364813   0.6194753  )
        63        Zn     tau(  63) = (   0.8750000  -0.1341203   0.8517785  )
        64        Zn     tau(  64) = (   0.8750000   0.4023610   0.8517785  )

   Crystallographic axes

     site n.     atom                  positions (cryst. coord.)
         1        Zn     tau(   1) = (  0.1250000  0.1666667  0.0327328  )
         2        Zn     tau(   2) = (  0.1250000  0.6666667  0.0327328  )
         3        Zn     tau(   3) = (  0.1250000  0.1666667  0.1309312  )
         4        Zn     tau(   4) = (  0.1250000  0.6666667  0.1309312  )
         5        Zn     tau(   5) = (  0.1250000  0.1666667  0.2291296  )
         6        Zn     tau(   6) = (  0.1250000  0.6666667  0.2291296  )
         7        Zn     tau(   7) = (  0.1250000  0.1666667  0.3273279  )
         8        Zn     tau(   8) = (  0.1250000  0.6666667  0.3273279  )
         9        Zn     tau(   9) = (  0.1250000  0.4166667  0.0327328  )
        10        Zn     tau(  10) = (  0.1250000  0.9166667  0.0327328  )
        11        Zn     tau(  11) = (  0.1250000  0.4166667  0.1309312  )
        12        Zn     tau(  12) = (  0.1250000  0.9166667  0.1309312  )
        13        Zn     tau(  13) = (  0.1250000  0.4166667  0.2291296  )
        14        Zn     tau(  14) = (  0.1250000  0.9166667  0.2291296  )
        15        Zn     tau(  15) = (  0.1250000  0.4166667  0.3273279  )
        16        Zn     tau(  16) = (  0.1250000  0.9166667  0.3273279  )
        17        Zn     tau(  17) = (  0.6250000  0.1666667  0.0327328  )
        18        Zn     tau(  18) = (  0.6250000  0.6666667  0.0327328  )
        19        Zn     tau(  19) = (  0.6250000  0.1666667  0.1309312  )
        20        Zn     tau(  20) = (  0.6250000  0.6666667  0.1309312  )
        21        Zn     tau(  21) = (  0.6250000  0.1666667  0.2291296  )
        22        Zn     tau(  22) = (  0.6250000  0.6666667  0.2291296  )
        23        Zn     tau(  23) = (  0.6250000  0.1666667  0.3273279  )
        24        Zn     tau(  24) = (  0.6250000  0.6666667  0.3273279  )
        25        Zn     tau(  25) = (  0.6250000  0.4166667  0.0327328  )
        26        Zn     tau(  26) = (  0.6250000  0.9166667  0.0327328  )
        27        Zn     tau(  27) = (  0.6250000  0.4166667  0.1309312  )
        28        Zn     tau(  28) = (  0.6250000  0.9166667  0.1309312  )
        29        Zn     tau(  29) = (  0.6250000  0.4166667  0.2291296  )
        30        Zn     tau(  30) = (  0.6250000  0.9166667  0.2291296  )
        31        Zn     tau(  31) = (  0.6250000  0.4166667  0.3273279  )
        32        Zn     tau(  32) = (  0.6250000  0.9166667  0.3273279  )
        33        Zn     tau(  33) = (  0.3750000  0.0833333  0.0654656  )
        34        Zn     tau(  34) = (  0.3750000  0.5833333  0.0654656  )
[...]
     atom   33 type  1   force =     0.00000000    0.00000000    0.00000000
     atom   34 type  1   force =     0.00000000    0.00000000    0.00000000
     atom   35 type  1   force =     0.00000000    0.00000000    0.00000000
     atom   36 type  1   force =     0.00000000    0.00000000    0.00000000
     atom   37 type  1   force =     0.00000000    0.00000000    0.00000000
     atom   38 type  1   force =     0.00000000    0.00000000    0.00000000
     atom   39 type  1   force =     0.00000000    0.00000000    0.00000000
     atom   40 type  1   force =     0.00000000    0.00000000    0.00000000
     atom   41 type  1   force =     0.00000000    0.00000000    0.00000000
     atom   42 type  1   force =     0.00000000    0.00000000    0.00000000
     atom   43 type  1   force =     0.00000000    0.00000000    0.00000000
     atom   44 type  1   force =     0.00000000    0.00000000    0.00000000
     atom   45 type  1   force =     0.00000000    0.00000000    0.00000000
     atom   46 type  1   force =     0.00000000    0.00000000    0.00000000
     atom   47 type  1   force =     0.00000000    0.00000000    0.00000000
     atom   48 type  1   force =     0.00000000    0.00000000    0.00000000
     atom   49 type  1   force =     0.00000000    0.00000000    0.00000000
     atom   50 type  1   force =     0.00000000    0.00000000    0.00000000
     atom   51 type  1   force =     0.00000000    0.00000000    0.00000000
     atom   52 type  1   force =     0.00000000    0.00000000    0.00000000
     atom   53 type  1   force =     0.00000000    0.00000000    0.00000000
     atom   54 type  1   force =     0.00000000    0.00000000    0.00000000
     atom   55 type  1   force =     0.00000000    0.00000000    0.00000000
     atom   56 type  1   force =     0.00000000    0.00000000    0.00000000
     atom   57 type  1   force =     0.00000000    0.00000000    0.00000000
     atom   58 type  1   force =     0.00000000    0.00000000    0.00000000
     atom   59 type  1   force =     0.00000000    0.00000000    0.00000000
     atom   60 type  1   force =     0.00000000    0.00000000    0.00000000
     atom   61 type  1   force =     0.00000000    0.00000000    0.00000000
     atom   62 type  1   force =     0.00000000    0.00000000    0.00000000
     atom   63 type  1   force =     0.00000000    0.00000000    0.00000000
     atom   64 type  1   force =     0.00000000    0.00000000    0.00000000
     The SCF correction term to forces
     atom    1 type  1   force =    -0.00000000    0.00000000    0.00000000
     atom    2 type  1   force =    -0.00000000   -0.00000000    0.00000000
     atom    3 type  1   force =    -0.00000000    0.00000000    0.00000000
     atom    4 type  1   force =    -0.00000000   -0.00000000    0.00000000
     atom    5 type  1   force =    -0.00002964    0.00004862   -0.00000137
     atom    6 type  1   force =    -0.00003061   -0.00004752   -0.00002893
     atom    7 type  1   force =    -0.00002224   -0.00003541   -0.00007723
     atom    8 type  1   force =    -0.00002391    0.00003386   -0.00015255
     atom    9 type  1   force =    -0.00000000   -0.00000000    0.00000000
     atom   10 type  1   force =    -0.00000000    0.00000000   -0.00000000
     atom   11 type  1   force =    -0.00000000    0.00000000    0.00000000
     atom   12 type  1   force =    -0.00000000   -0.00000000    0.00000000
     atom   13 type  1   force =    -0.00003090    0.00013472   -0.00001081
     atom   14 type  1   force =    -0.00002974   -0.00013626   -0.00002099
     atom   15 type  1   force =    -0.00002259    0.00009500   -0.00009741
     atom   16 type  1   force =    -0.00002356   -0.00009253   -0.00013474
     atom   17 type  1   force =     0.00000000    0.00000000   -0.00000000
     atom   18 type  1   force =     0.00000000   -0.00000000   -0.00000000
     atom   19 type  1   force =     0.00000000    0.00000000    0.00000000
     atom   20 type  1   force =     0.00000000   -0.00000000    0.00000000
     atom   21 type  1   force =     0.00002855    0.00004826    0.00001464
     atom   22 type  1   force =     0.00003018   -0.00004578   -0.00001439
     atom   23 type  1   force =     0.00002184   -0.00003481   -0.00001182
     atom   24 type  1   force =     0.00002355    0.00003311   -0.00008144
     atom   25 type  1   force =     0.00000000   -0.00000000   -0.00000000
     atom   26 type  1   force =     0.00000000    0.00000000   -0.00000000
     atom   27 type  1   force =     0.00000000    0.00000000    0.00000000
     atom   28 type  1   force =     0.00000000   -0.00000000   -0.00000000
     atom   29 type  1   force =     0.00002978    0.00013102    0.00000446
     atom   30 type  1   force =     0.00002927   -0.00013385   -0.00000342
     atom   31 type  1   force =     0.00002247    0.00009131   -0.00002846
     atom   32 type  1   force =     0.00002316   -0.00008915   -0.00006503
     atom   33 type  1   force =    -0.00000000    0.00000000   -0.00000000
     atom   34 type  1   force =    -0.00000000   -0.00000000    0.00000000
     atom   35 type  1   force =    -0.00000000    0.00000000    0.00000000
     atom   36 type  1   force =    -0.00000000   -0.00000000    0.00000000
     atom   37 type  1   force =    -0.00011256   -0.00005750   -0.00000801
     atom   38 type  1   force =    -0.00011550    0.00005674   -0.00003056
     atom   39 type  1   force =    -0.00007128   -0.00008760   -0.00003894
     atom   40 type  1   force =    -0.00007078    0.00008667   -0.00006846
     atom   41 type  1   force =    -0.00000000    0.00000000    0.00000000
     atom   42 type  1   force =    -0.00000000   -0.00000000   -0.00000000
     atom   43 type  1   force =    -0.00000000    0.00000000    0.00000000
     atom   44 type  1   force =    -0.00000000   -0.00000000    0.00000000
     atom   45 type  1   force =    -0.00011357    0.00012628   -0.00000223
     atom   46 type  1   force =    -0.00011282   -0.00012731   -0.00003408
     atom   47 type  1   force =    -0.00007048    0.00004200   -0.00001453
     atom   48 type  1   force =    -0.00007197   -0.00003960   -0.00009180
     atom   49 type  1   force =     0.00000000    0.00000000   -0.00000000
     atom   50 type  1   force =     0.00000000   -0.00000000    0.00000000
     atom   51 type  1   force =     0.00000000    0.00000000    0.00000000
     atom   52 type  1   force =     0.00000000   -0.00000000    0.00000000
     atom   53 type  1   force =     0.00011411   -0.00005744   -0.00000982
     atom   54 type  1   force =     0.00011556    0.00005785   -0.00002927
     atom   55 type  1   force =     0.00007136   -0.00008922   -0.00005719
     atom   56 type  1   force =     0.00007044    0.00008932   -0.00008783
     atom   57 type  1   force =     0.00000000    0.00000000    0.00000000
     atom   58 type  1   force =     0.00000000   -0.00000000   -0.00000000
     atom   59 type  1   force =     0.00000000    0.00000000    0.00000000
     atom   60 type  1   force =     0.00000000   -0.00000000    0.00000000
     atom   61 type  1   force =     0.00011554    0.00012665   -0.00000325
     atom   62 type  1   force =     0.00011309   -0.00012820   -0.00003414
     atom   63 type  1   force =     0.00007001    0.00004282   -0.00003314
     atom   64 type  1   force =     0.00007198   -0.00004176   -0.00011171

     Total force =     0.001052     Total SCF correction =     0.000711
     SCF correction compared to forces is large: reduce conv_thr to get better values

     Computing stress (Cartesian axis) and pressure

          total   stress  (Ry/bohr**3)                   (kbar)     P=     -301.38
  -0.00217372  -0.00000000  -0.00000000         -319.77       -0.00       -0.00
  -0.00000000  -0.00202271  -0.00000032           -0.00     -297.55       -0.05
  -0.00000000  -0.00000032  -0.00194977           -0.00       -0.05     -286.82

     kinetic stress (kbar)  16017.97     -0.00     -0.00
                               -0.00  15991.06     -0.00
                               -0.00     -0.00  16051.26

     local   stress (kbar)**********     -0.00     -0.04
                               -0.00**********     -0.15
                               -0.04     -0.151322857.34

     nonloc. stress (kbar)  -1978.81     -0.00      0.00
                               -0.00  -1939.46     -0.04
                                0.00     -0.04  -1991.10

     hartree stress (kbar) 688794.72      0.00      0.02
                                0.00 696063.17      0.06
                                0.02      0.06-617396.50

     exc-cor stress (kbar)  -8012.73     -0.00      0.00
                               -0.00  -8008.23      0.00
                                0.00      0.00  -8016.23

     corecor stress (kbar)      0.00      0.00      0.00
                                0.00      0.00      0.00
                                0.00      0.00      0.00

     ewald   stress (kbar) 610469.72      0.00      0.02
                                0.00 620124.16      0.08
                                0.02      0.08-711791.59

     hubbard stress (kbar)      0.00      0.00      0.00
                                0.00      0.00      0.00
                                0.00      0.00      0.00

     DFT-D   stress (kbar)      0.00      0.00      0.00
                                0.00      0.00      0.00
                                0.00      0.00      0.00

     XDM     stress (kbar)      0.00      0.00      0.00
                                0.00      0.00      0.00
                                0.00      0.00      0.00

     dft-nl  stress (kbar)      0.00      0.00      0.00
                                0.00      0.00      0.00
                                0.00      0.00      0.00

     TS-vdW  stress (kbar)      0.00      0.00      0.00
                                0.00      0.00      0.00
                                0.00      0.00      0.00

     MDB     stress (kbar)      0.00      0.00      0.00
                                0.00      0.00      0.00
                                0.00      0.00      0.00

     3D-RISM stress (kbar)      0.00      0.00      0.00
                                0.00      0.00      0.00
                                0.00      0.00      0.00

     Energy error            =      2.7E-06 Ry
     Gradient error          =      3.0E-04 Ry/Bohr

     bfgs converged in  22 scf cycles and  21 bfgs steps
     (criteria: energy <  1.0E-05 Ry, force <  5.0E-04 Ry/Bohr)

     End of BFGS Geometry Optimization

     Final energy             =  -29535.2028667322 Ry

     File ./tmp/Zn100_2x4x4_relax_ecutrho250_ecutwfc25.bfgs deleted, as requested
Begin final coordinates

ATOMIC_POSITIONS (angstrom)
Zn               1.2182902100        1.3071799380        0.7547006810    0   0   0
Zn               1.2182902100        6.5358996490        0.7547006810    0   0   0
Zn               1.2182902100        0.0000000010        3.0188027470    0   0   0
Zn               1.2182902100        5.2287197120        3.0188027470    0   0   0
Zn               1.2185726075       -1.3073880994        5.6729282852
Zn               1.2186851431        3.9215451479        5.6720151579
Zn               1.2186874652       -2.6146512868        8.3124525080
Zn               1.2187441482        2.6147502354        8.3119490829
Zn               1.2182902100        3.9215397940        0.7547006810    0   0   0
Zn               1.2182902100        9.1502595050        0.7547006810    0   0   0
Zn               1.2182902100        2.6143598570        3.0188027470    0   0   0
Zn               1.2182902100        7.8430795680        3.0188027470    0   0   0
Zn               1.2186883199        1.3072854268        5.6723424169
Zn               1.2185625130        6.5357747424        5.6727099542
Zn               1.2187214220       -0.0003586288        8.3124656907
Zn               1.2187057638        5.2291606609        8.3118595007
Zn               6.0914510490        1.3071799380        0.7547006810    0   0   0
Zn               6.0914510490        6.5358996490        0.7547006810    0   0   0
Zn               6.0914510490        0.0000000010        3.0188027470    0   0   0
Zn               6.0914510490        5.2287197120        3.0188027470    0   0   0
Zn               6.0911338514       -1.3072242637        5.6748546444
Zn               6.0910857638        3.9213990650        5.6741431289
Zn               6.0911071145       -2.6147187100        8.3122617478
Zn               6.0909630492        2.6148257972        8.3118541494
Zn               6.0914510490        3.9215397940        0.7547006810    0   0   0
Zn               6.0914510490        9.1502595050        0.7547006810    0   0   0
Zn               6.0914510490        2.6143598570        3.0188027470    0   0   0
Zn               6.0914510490        7.8430795680        3.0188027470    0   0   0
Zn               6.0911030401        1.3076064174        5.6744400348
Zn               6.0911314819        6.5354481156        5.6746346244
Zn               6.0910519940       -0.0001550310        8.3123616547
Zn               6.0910350808        5.2289552434        8.3117181402
Zn               3.6548706290       -0.0000000190        1.5094013850    0   0   0
Zn               3.6548706290        5.2287196920        1.5094013850    0   0   0
Zn               3.6548706290       -1.3071799560        3.7735034500    0   0   0
Zn               3.6548706290        3.9215397550        3.7735034500    0   0   0
Zn               3.6546710580       -2.6147701593        6.0778389286
Zn               3.6547432516        2.6146750712        6.0771464013
Zn               3.6559778408       -3.9216886876        8.4670559092
Zn               3.6560296889        1.3071976063        8.4673307023
Zn               3.6548706290        2.6143598370        1.5094013850    0   0   0
Zn               3.6548706290        7.8430795480        1.5094013850    0   0   0
Zn               3.6548706290        1.3071799000        3.7735034500    0   0   0
Zn               3.6548706290        6.5358996110        3.7735034500    0   0   0
Zn               3.6547437702        0.0001669099        6.0773502731
Zn               3.6547864959        5.2284186199        6.0775758154
Zn               3.6559474203       -1.3076933695        8.4673694336
Zn               3.6560502897        3.9218980393        8.4670053876
Zn               8.5280314680       -0.0000000190        1.5094013850    0   0   0
Zn               8.5280314680        5.2287196920        1.5094013850    0   0   0
Zn               8.5280314680       -1.3071799560        3.7735034500    0   0   0
Zn               8.5280314680        3.9215397550        3.7735034500    0   0   0
Zn               8.5281647867       -2.6147587956        6.0779299812
Zn               8.5281732184        2.6146472247        6.0772010317
Zn               8.5269885230       -3.9215735360        8.4681201244
Zn               8.5268924990        1.3070557120        8.4683976833
Zn               8.5280314680        2.6143598370        1.5094013850    0   0   0
Zn               8.5280314680        7.8430795480        1.5094013850    0   0   0
Zn               8.5280314680        1.3071799000        3.7735034500    0   0   0
Zn               8.5280314680        6.5358996110        3.7735034500    0   0   0
Zn               8.5282171944       -0.0000137934        6.0774321744
Zn               8.5281738077        5.2286143460        6.0776528160
Zn               8.5270310305       -1.3077639996        8.4684178960
Zn               8.5268620331        3.9220020700        8.4680752259
End final coordinates

     Writing all to output data dir ./tmp/Zn100_2x4x4_relax_ecutrho250_ecutwfc25.save/ :
     XML data file, charge density, pseudopotentials, collected wavefunctions

     General routines

     Parallel routines

   This run was terminated on:  12:55: 8  18Mar2025

   JOB DONE.
Note: The following floating-point exceptions are signalling: IEEE_DENORMAL
Note: The following floating-point exceptions are signalling: IEEE_DENORMAL
Note: The following floating-point exceptions are signalling: IEEE_DENORMAL
Note: The following floating-point exceptions are signalling: IEEE_DENORMAL
Note: The following floating-point exceptions are signalling: IEEE_DENORMAL
Note: The following floating-point exceptions are signalling: IEEE_DENORMAL
Note: The following floating-point exceptions are signalling: IEEE_DENORMAL
Note: The following floating-point exceptions are signalling: IEEE_DENORMAL
Note: The following floating-point exceptions are signalling: IEEE_DENORMAL
Note: The following floating-point exceptions are signalling: IEEE_DENORMAL
Note: The following floating-point exceptions are signalling: IEEE_DENORMAL