     Program PWSCF v.7.3.1 starts on 15Mar2025 at  3: 7:25

     Waiting for input...
     Reading input from standard input
Warning: card &CELL ignored
Warning: card   CELL_DOFREE = 'ALL' ignored
Warning: card / ignored

     Current dimensions of program PWSCF are:
     Max number of different atomic species (ntypx) = 10
     Max number of k-points (npk) =  40000
     Max angular momentum in pseudopotentials (lmaxx) =  4
     Found identity + ( -0.0000 -0.5000  0.0000) symmetry
     This is a supercell, fractional translations are disabled

     R & G space division:  proc/nbgrp/npool/nimage =      30
     Subspace diagonalization in iterative solution of the eigenvalue problem:
     one sub-group per band group will be used

     Using Slab Decomposition

     bravais-lattice index     =            0
     lattice parameter (alat)  =      20.9009  a.u.
     unit-cell volume          =    8423.3755 (a.u.)^3
     number of atoms/cell      =           32
     number of atomic types    =            1
     number of electrons       =       640.00
     number of Kohn-Sham states=          384
     kinetic-energy cutoff     =      30.0000  Ry
     charge density cutoff     =     120.0000  Ry
     scf convergence threshold =      7.3E-07
     mixing beta               =       0.7000
     number of iterations used =            8  plain     mixing
     energy convergence thresh.=      1.0E-05
     force convergence thresh. =      5.0E-04
     Exchange-correlation= SLA  PW   PBE  PBE
                           (   1   4   3   4   0   0   0)
     nstep                     =          100

     celldm(1)=  20.900943  celldm(2)=   0.000000  celldm(3)=   0.000000
     celldm(4)=   0.000000  celldm(5)=   0.000000  celldm(6)=   0.000000

     crystal axes: (cart. coord. in units of alat)
               a(1) = (   1.000000   0.000000   0.000000 )
               a(2) = (  -0.111745   0.459350   0.000000 )
               a(3) = (  -4.200249  -1.021781   2.008375 )

     reciprocal axes: (cart. coord. in units 2 pi/alat)
               b(1) = (  1.000000  0.243267  2.215131 )
               b(2) = ( -0.000000  2.176989  1.107566 )
               b(3) = (  0.000000 -0.000000  0.497915 )

     PseudoPot. # 1 for Zn read from file:
     /home/ys/qepseudo/SSSP_1.3.0_PBE_efficiency/Zn_pbe_v1.uspp.F.UPF
     MD5 check sum: df62231357ef9e81f77b2b3087fa5675
     Pseudo is Ultrasoft, Zval = 20.0
     Generated by new atomic code, or converted to UPF format
     Using radial grid of  943 points,  6 beta functions with:
                l(1) =   0
                l(2) =   0
                l(3) =   1
                l(4) =   1
                l(5) =   2
                l(6) =   2
     Q(r) pseudized with  8 coefficients,  rinner =    1.100   1.100   1.100
                                                       1.100   1.100

     atomic species   valence    mass     pseudopotential
     Zn               20.00    65.38000     Zn( 1.00)

     No symmetry found

                                    s                        frac. trans.

      isym =  1     identity

 cryst.   s( 1) = (     1          0          0      )
                  (     0          1          0      )
                  (     0          0          1      )

 cart.    s( 1) = (  1.0000000  0.0000000  0.0000000 )
                  (  0.0000000  1.0000000  0.0000000 )
                  (  0.0000000  0.0000000  1.0000000 )

   Cartesian axes

     site n.     atom                  positions (alat units)
         1        Zn     tau(   1) = (  -0.0970639   0.0980210   0.1082939  )
         2        Zn     tau(   2) = (  -0.4853192   0.0035714   0.2939406  )
         3        Zn     tau(   3) = (  -0.8735746  -0.0908783   0.4795873  )
         4        Zn     tau(   4) = (  -1.2618300  -0.1853280   0.6652341  )
         5        Zn     tau(   5) = (  -0.1529362   0.3276960   0.1082939  )
         6        Zn     tau(   6) = (  -0.5411916   0.2332464   0.2939406  )
         7        Zn     tau(   7) = (  -0.9294469   0.1387967   0.4795873  )
         8        Zn     tau(   8) = (  -1.3177023   0.0443470   0.6652341  )
         9        Zn     tau(   9) = (   0.4029361   0.0980210   0.1082939  )
        10        Zn     tau(  10) = (   0.0146808   0.0035714   0.2939406  )
        11        Zn     tau(  11) = (  -0.3735746  -0.0908783   0.4795873  )
        12        Zn     tau(  12) = (  -0.7618300  -0.1853280   0.6652341  )
        13        Zn     tau(  13) = (   0.3470638   0.3276960   0.1082939  )
        14        Zn     tau(  14) = (  -0.0411916   0.2332464   0.2939406  )
        15        Zn     tau(  15) = (  -0.4294469   0.1387967   0.4795873  )
        16        Zn     tau(  16) = (  -0.8177023   0.0443470   0.6652341  )
        17        Zn     tau(  17) = (   0.1529362   0.0372043   0.0773528  )
        18        Zn     tau(  18) = (  -0.2353192  -0.0572454   0.2629995  )
        19        Zn     tau(  19) = (  -0.6235746  -0.1516950   0.4486462  )
        20        Zn     tau(  20) = (  -1.0118300  -0.2461447   0.6342929  )
        21        Zn     tau(  21) = (   0.0970639   0.2668793   0.0773528  )
        22        Zn     tau(  22) = (  -0.2911915   0.1724296   0.2629995  )
        23        Zn     tau(  23) = (  -0.6794469   0.0779800   0.4486462  )
        24        Zn     tau(  24) = (  -1.0677023  -0.0164697   0.6342929  )
        25        Zn     tau(  25) = (   0.6529362   0.0372043   0.0773528  )
        26        Zn     tau(  26) = (   0.2646808  -0.0572454   0.2629995  )
        27        Zn     tau(  27) = (  -0.1235746  -0.1516950   0.4486462  )
        28        Zn     tau(  28) = (  -0.5118300  -0.2461447   0.6342929  )
        29        Zn     tau(  29) = (   0.5970639   0.2668793   0.0773528  )
        30        Zn     tau(  30) = (   0.2088085   0.1724296   0.2629995  )
        31        Zn     tau(  31) = (  -0.1794469   0.0779800   0.4486462  )
        32        Zn     tau(  32) = (  -0.5677023  -0.0164697   0.6342929  )

   Crystallographic axes

     site n.     atom                  positions (cryst. coord.)
         1        Zn     tau(   1) = (  0.1666667  0.3333333  0.0539212  )
         2        Zn     tau(   2) = (  0.1666667  0.3333333  0.1463574  )
         3        Zn     tau(   3) = (  0.1666667  0.3333333  0.2387937  )
         4        Zn     tau(   4) = (  0.1666667  0.3333333  0.3312300  )
         5        Zn     tau(   5) = (  0.1666667  0.8333333  0.0539212  )
         6        Zn     tau(   6) = (  0.1666667  0.8333333  0.1463574  )
         7        Zn     tau(   7) = (  0.1666667  0.8333333  0.2387937  )
         8        Zn     tau(   8) = (  0.1666667  0.8333333  0.3312300  )
         9        Zn     tau(   9) = (  0.6666667  0.3333333  0.0539212  )
        10        Zn     tau(  10) = (  0.6666667  0.3333333  0.1463574  )
        11        Zn     tau(  11) = (  0.6666667  0.3333333  0.2387937  )
        12        Zn     tau(  12) = (  0.6666667  0.3333333  0.3312300  )
        13        Zn     tau(  13) = (  0.6666667  0.8333333  0.0539212  )
        14        Zn     tau(  14) = (  0.6666667  0.8333333  0.1463574  )
        15        Zn     tau(  15) = (  0.6666667  0.8333333  0.2387937  )
        16        Zn     tau(  16) = (  0.6666667  0.8333333  0.3312300  )
        17        Zn     tau(  17) = (  0.3333333  0.1666667  0.0385151  )
        18        Zn     tau(  18) = (  0.3333333  0.1666667  0.1309514  )
        19        Zn     tau(  19) = (  0.3333333  0.1666667  0.2233877  )
        20        Zn     tau(  20) = (  0.3333333  0.1666667  0.3158240  )
        21        Zn     tau(  21) = (  0.3333333  0.6666667  0.0385151  )
        22        Zn     tau(  22) = (  0.3333333  0.6666667  0.1309514  )
        23        Zn     tau(  23) = (  0.3333333  0.6666667  0.2233877  )
        24        Zn     tau(  24) = (  0.3333333  0.6666667  0.3158240  )
        25        Zn     tau(  25) = (  0.8333333  0.1666667  0.0385151  )
        26        Zn     tau(  26) = (  0.8333333  0.1666667  0.1309514  )
        27        Zn     tau(  27) = (  0.8333333  0.1666667  0.2233877  )
        28        Zn     tau(  28) = (  0.8333333  0.1666667  0.3158240  )
        29        Zn     tau(  29) = (  0.8333333  0.6666667  0.0385151  )
        30        Zn     tau(  30) = (  0.8333333  0.6666667  0.1309514  )
        31        Zn     tau(  31) = (  0.8333333  0.6666667  0.2233877  )
        32        Zn     tau(  32) = (  0.8333333  0.6666667  0.3158240  )

     number of k points=     5  Marzari-Vanderbilt smearing, width (Ry)=  0.0200
                       cart. coord. in units 2pi/alat
        k(    1) = (   0.0000000   0.0000000   0.0000000), wk =   0.2222222
        k(    2) = (   0.0000000   0.7256631   0.3691885), wk =   0.4444444
        k(    3) = (   0.3333333   0.0810890   0.7383771), wk =   0.4444444
        k(    4) = (   0.3333333   0.8067520   1.1075656), wk =   0.4444444
        k(    5) = (   0.3333333  -0.6445741   0.3691886), wk =   0.4444444

                       cryst. coord.
        k(    1) = (   0.0000000   0.0000000   0.0000000), wk =   0.2222222
        k(    2) = (   0.0000000   0.3333333  -0.0000000), wk =   0.4444444
        k(    3) = (   0.3333333   0.0000000   0.0000000), wk =   0.4444444
        k(    4) = (   0.3333333   0.3333333   0.0000000), wk =   0.4444444
        k(    5) = (   0.3333333  -0.3333333   0.0000000), wk =   0.4444444

     Initial potential from superposition of free atoms

     starting charge     639.9955, renormalised to     640.0000

     negative rho (up, down):  9.016E-04 0.000E+00
     Starting wfcs are  416 randomized atomic wfcs
[psid03:136367] Set MCA parameter "orte_base_help_aggregate" to 0 to see all help / error messages

     Self-consistent Calculation

     iteration #  1     ecut=    30.00 Ry     beta= 0.70
     Davidson diagonalization with overlap

     ethr =  1.00E-02,  avg # of iterations =  8.0

     Threshold (ethr) on eigenvalues was too large:
     Diagonalizing with lowered threshold

     Davidson diagonalization with overlap

[...]

     negative rho (up, down):  3.160E-03 0.000E+00

     total energy              =  -14766.74441352 Ry
     estimated scf accuracy    <       1.33083180 Ry

[...]

     End of self-consistent calculation

          k = 0.0000 0.0000 0.0000 ( 23429 PWs)   bands (ev):

  -124.2896-124.2894-124.2884-124.2873-124.2869-124.2868-124.2866-124.2864
  -124.2862-124.2854-124.2853-124.2852-124.2845-124.2845-124.2840-124.2833
  -123.9867-123.9865-123.9860-123.9857-123.9857-123.9855-123.9852-123.9850
  -123.8325-123.8322-123.8315-123.8314-123.8310-123.8308-123.8302-123.8300
   -78.4043 -78.4042 -78.4026 -78.4025 -78.3971 -78.3971 -78.3960 -78.3960
   -78.3870 -78.3852 -78.3848 -78.3827 -78.3786 -78.3778 -78.3727 -78.3722
   -78.3722 -78.3712 -78.3711 -78.3706 -78.3701 -78.3699 -78.3696 -78.3695
   -78.3694 -78.3692 -78.3691 -78.3675 -78.3668 -78.3663 -78.3663 -78.3658
   -78.3657 -78.3655 -78.3653 -78.3649 -78.3637 -78.3637 -78.3637 -78.3634
   -78.3627 -78.3621 -78.3620 -78.3615 -78.3586 -78.3558 -78.3541 -78.3535
   -78.0880 -78.0878 -78.0874 -78.0873 -78.0872 -78.0868 -78.0861 -78.0858
[...]
     atom   31 type  1   force =     3.67190503    0.89296845   95.16996605
     atom   32 type  1   force =    11.82545376    2.87643327  340.36226183
     The local contribution  to forces
     atom    1 type  1   force =     5.52244697    1.34343016  347.95994883
     atom    2 type  1   force =    -1.55943060   -0.37950807   94.62197924
     atom    3 type  1   force =     3.04032520    0.73997220 -149.61271431
     atom    4 type  1   force =    10.65132657    2.59071654 -372.38191722
     atom    5 type  1   force =     5.52244718    1.34342946  347.95994461
     atom    6 type  1   force =    -1.55942684   -0.37952218   94.62197963
     atom    7 type  1   force =     3.04033029    0.73999309 -149.61262575
     atom    8 type  1   force =    10.65132884    2.59071774 -372.38187614
     atom    9 type  1   force =     5.50856505    1.34005127  347.99449001
     atom   10 type  1   force =    -1.46758273   -0.35719014   94.57578136
     atom   11 type  1   force =     2.93793299    0.71490910 -149.62973475
     atom   12 type  1   force =    10.62447827    2.58406646 -372.33327007
     atom   13 type  1   force =     5.50856530    1.34005106  347.99448826
     atom   14 type  1   force =    -1.46757667   -0.35722939   94.57578810
     atom   15 type  1   force =     2.93791522    0.71491049 -149.62971392
     atom   16 type  1   force =    10.62447068    2.58410330 -372.33320535
     atom   17 type  1   force =    -1.77870051   -0.43269993  376.51124600
     atom   18 type  1   force =    -0.23451621   -0.05724510  138.44661110
     atom   19 type  1   force =    -3.61899276   -0.88020340  -94.97218982
     atom   20 type  1   force =   -12.02015736   -2.92388627 -340.58537932
     atom   21 type  1   force =    -1.77870060   -0.43270145  376.51124561
     atom   22 type  1   force =    -0.23451081   -0.05725686  138.44661800
     atom   23 type  1   force =    -3.61899015   -0.88018205  -94.97214703
     atom   24 type  1   force =   -12.02017523   -2.92387736 -340.58537505
     atom   25 type  1   force =    -1.80672632   -0.43951825  376.50331854
     atom   26 type  1   force =    -0.15654863   -0.03824526  138.50730818
     atom   27 type  1   force =    -3.71339687   -0.90307034  -95.12631602
     atom   28 type  1   force =   -11.96905732   -2.91137380 -340.44532384
     atom   29 type  1   force =    -1.80672667   -0.43951898  376.50331806
     atom   30 type  1   force =    -0.15655300   -0.03825703  138.50731916
     atom   31 type  1   force =    -3.71338156   -0.90303428  -95.12623404
     atom   32 type  1   force =   -11.96902912   -2.91134859 -340.44529691
     The core correction contribution to forces
     atom    1 type  1   force =     0.00000000    0.00000000    0.00000000
     atom    2 type  1   force =     0.00000000    0.00000000    0.00000000
     atom    3 type  1   force =     0.00000000    0.00000000    0.00000000
     atom    4 type  1   force =     0.00000000    0.00000000    0.00000000
     atom    5 type  1   force =     0.00000000    0.00000000    0.00000000
     atom    6 type  1   force =     0.00000000    0.00000000    0.00000000
     atom    7 type  1   force =     0.00000000    0.00000000    0.00000000
     atom    8 type  1   force =     0.00000000    0.00000000    0.00000000
     atom    9 type  1   force =     0.00000000    0.00000000    0.00000000
     atom   10 type  1   force =     0.00000000    0.00000000    0.00000000
     atom   11 type  1   force =     0.00000000    0.00000000    0.00000000
     atom   12 type  1   force =     0.00000000    0.00000000    0.00000000
     atom   13 type  1   force =     0.00000000    0.00000000    0.00000000
     atom   14 type  1   force =     0.00000000    0.00000000    0.00000000
     atom   15 type  1   force =     0.00000000    0.00000000    0.00000000
     atom   16 type  1   force =     0.00000000    0.00000000    0.00000000
     atom   17 type  1   force =     0.00000000    0.00000000    0.00000000
     atom   18 type  1   force =     0.00000000    0.00000000    0.00000000
     atom   19 type  1   force =     0.00000000    0.00000000    0.00000000
     atom   20 type  1   force =     0.00000000    0.00000000    0.00000000
     atom   21 type  1   force =     0.00000000    0.00000000    0.00000000
     atom   22 type  1   force =     0.00000000    0.00000000    0.00000000
     atom   23 type  1   force =     0.00000000    0.00000000    0.00000000
     atom   24 type  1   force =     0.00000000    0.00000000    0.00000000
     atom   25 type  1   force =     0.00000000    0.00000000    0.00000000
     atom   26 type  1   force =     0.00000000    0.00000000    0.00000000
     atom   27 type  1   force =     0.00000000    0.00000000    0.00000000
     atom   28 type  1   force =     0.00000000    0.00000000    0.00000000
     atom   29 type  1   force =     0.00000000    0.00000000    0.00000000
     atom   30 type  1   force =     0.00000000    0.00000000    0.00000000
     atom   31 type  1   force =     0.00000000    0.00000000    0.00000000
     atom   32 type  1   force =     0.00000000    0.00000000    0.00000000
     The Hubbard contrib.    to forces
     atom    1 type  1   force =     0.00000000    0.00000000    0.00000000
     atom    2 type  1   force =     0.00000000    0.00000000    0.00000000
     atom    3 type  1   force =     0.00000000    0.00000000    0.00000000
     atom    4 type  1   force =     0.00000000    0.00000000    0.00000000
     atom    5 type  1   force =     0.00000000    0.00000000    0.00000000
     atom    6 type  1   force =     0.00000000    0.00000000    0.00000000
     atom    7 type  1   force =     0.00000000    0.00000000    0.00000000
     atom    8 type  1   force =     0.00000000    0.00000000    0.00000000
     atom    9 type  1   force =     0.00000000    0.00000000    0.00000000
     atom   10 type  1   force =     0.00000000    0.00000000    0.00000000
     atom   11 type  1   force =     0.00000000    0.00000000    0.00000000
     atom   12 type  1   force =     0.00000000    0.00000000    0.00000000
     atom   13 type  1   force =     0.00000000    0.00000000    0.00000000
     atom   14 type  1   force =     0.00000000    0.00000000    0.00000000
     atom   15 type  1   force =     0.00000000    0.00000000    0.00000000
     atom   16 type  1   force =     0.00000000    0.00000000    0.00000000
     atom   17 type  1   force =     0.00000000    0.00000000    0.00000000
     atom   18 type  1   force =     0.00000000    0.00000000    0.00000000
     atom   19 type  1   force =     0.00000000    0.00000000    0.00000000
     atom   20 type  1   force =     0.00000000    0.00000000    0.00000000
     atom   21 type  1   force =     0.00000000    0.00000000    0.00000000
     atom   22 type  1   force =     0.00000000    0.00000000    0.00000000
     atom   23 type  1   force =     0.00000000    0.00000000    0.00000000
     atom   24 type  1   force =     0.00000000    0.00000000    0.00000000
     atom   25 type  1   force =     0.00000000    0.00000000    0.00000000
     atom   26 type  1   force =     0.00000000    0.00000000    0.00000000
     atom   27 type  1   force =     0.00000000    0.00000000    0.00000000
     atom   28 type  1   force =     0.00000000    0.00000000    0.00000000
     atom   29 type  1   force =     0.00000000    0.00000000    0.00000000
     atom   30 type  1   force =     0.00000000    0.00000000    0.00000000
     atom   31 type  1   force =     0.00000000    0.00000000    0.00000000
     atom   32 type  1   force =     0.00000000    0.00000000    0.00000000
     The SCF correction term to forces
     atom    1 type  1   force =    -0.00000000   -0.00000000   -0.00000000
     atom    2 type  1   force =    -0.00000000   -0.00000000   -0.00000000
     atom    3 type  1   force =     0.00000016    0.00000006    0.00001693
     atom    4 type  1   force =    -0.00005243   -0.00001276    0.00005250
     atom    5 type  1   force =    -0.00000000   -0.00000000   -0.00000000
     atom    6 type  1   force =    -0.00000000   -0.00000000   -0.00000000
     atom    7 type  1   force =     0.00000016    0.00000002    0.00001692
     atom    8 type  1   force =    -0.00005243   -0.00001276    0.00005250
     atom    9 type  1   force =     0.00000000    0.00000000    0.00000000
     atom   10 type  1   force =    -0.00000000   -0.00000000   -0.00000000
     atom   11 type  1   force =    -0.00003721   -0.00000906    0.00001592
     atom   12 type  1   force =     0.00000895    0.00000220    0.00006053
     atom   13 type  1   force =     0.00000000    0.00000000    0.00000000
     atom   14 type  1   force =    -0.00000000   -0.00000000   -0.00000000
     atom   15 type  1   force =    -0.00003722   -0.00000905    0.00001592
     atom   16 type  1   force =     0.00000894    0.00000216    0.00006053
     atom   17 type  1   force =     0.00000000    0.00000000    0.00000000
     atom   18 type  1   force =    -0.00000000   -0.00000000   -0.00000000
     atom   19 type  1   force =     0.00006288    0.00001531   -0.00003072
     atom   20 type  1   force =    -0.00000210   -0.00000050    0.00004427
     atom   21 type  1   force =     0.00000000    0.00000000    0.00000000
     atom   22 type  1   force =    -0.00000000   -0.00000000   -0.00000000
     atom   23 type  1   force =     0.00006288    0.00001528   -0.00003072
     atom   24 type  1   force =    -0.00000209   -0.00000052    0.00004426
     atom   25 type  1   force =    -0.00000000   -0.00000000    0.00000000
     atom   26 type  1   force =     0.00000000    0.00000000   -0.00000000
     atom   27 type  1   force =    -0.00002176   -0.00000528   -0.00001856
     atom   28 type  1   force =     0.00004954    0.00001207    0.00002641
     atom   29 type  1   force =    -0.00000000   -0.00000000    0.00000000
     atom   30 type  1   force =     0.00000000    0.00000000   -0.00000000
     atom   31 type  1   force =    -0.00002175   -0.00000531   -0.00001857
     atom   32 type  1   force =     0.00004953    0.00001204    0.00002641

     Total force =     0.001717     Total SCF correction =     0.000213
     SCF correction compared to forces is large: reduce conv_thr to get better values

     Computing stress (Cartesian axis) and pressure

          total   stress  (Ry/bohr**3)                   (kbar)     P=     -284.42
  -0.00200099  -0.00000588   0.00002141         -294.36       -0.87        3.15
  -0.00000588  -0.00197826   0.00000520           -0.87     -291.01        0.77
   0.00002141   0.00000520  -0.00182100            3.15        0.77     -267.88

     kinetic stress (kbar)  15079.54      9.02     -4.15
                                9.02  15044.66     -1.01
                               -4.15     -1.01  15115.07

     local   stress (kbar)**********   3539.32  -1789.24
                             3539.32**********   -435.19
                            -1789.24   -435.191184761.70

     nonloc. stress (kbar)  -1864.03     -6.21      3.92
                               -6.21  -1840.02      0.95
                                3.92      0.95  -1870.31

     hartree stress (kbar) 618974.22  -1524.74    745.29
                            -1524.74 624870.82    181.27
                              745.29    181.27-550830.06

     exc-cor stress (kbar)  -7541.83     -0.90      0.55
                               -0.90  -7538.33      0.13
                                0.55      0.13  -7545.13

     corecor stress (kbar)      0.00      0.00      0.00
                                0.00      0.00      0.00
                                0.00      0.00      0.00

     ewald   stress (kbar) 545737.26  -2017.35   1046.78
                            -2017.35 553538.90    254.61
                             1046.78    254.61-639899.14

     hubbard stress (kbar)      0.00      0.00      0.00
                                0.00      0.00      0.00
                                0.00      0.00      0.00

     DFT-D   stress (kbar)      0.00      0.00      0.00
                                0.00      0.00      0.00
                                0.00      0.00      0.00

     XDM     stress (kbar)      0.00      0.00      0.00
                                0.00      0.00      0.00
                                0.00      0.00      0.00

     dft-nl  stress (kbar)      0.00      0.00      0.00
                                0.00      0.00      0.00
                                0.00      0.00      0.00

     TS-vdW  stress (kbar)      0.00      0.00      0.00
                                0.00      0.00      0.00
                                0.00      0.00      0.00

     MDB     stress (kbar)      0.00      0.00      0.00
                                0.00      0.00      0.00
                                0.00      0.00      0.00

     3D-RISM stress (kbar)      0.00      0.00      0.00
                                0.00      0.00      0.00
                                0.00      0.00      0.00

     Energy error            =      3.5E-06 Ry
     Gradient error          =      4.6E-04 Ry/Bohr

     bfgs converged in  26 scf cycles and  25 bfgs steps
     (criteria: energy <  1.0E-05 Ry, force <  5.0E-04 Ry/Bohr)

     End of BFGS Geometry Optimization

     Final energy             =  -14767.5221721186 Ry

     File ./tmp/Zn002_2x2x4_relax_ecutrho250_ecutwfc25.bfgs deleted, as requested
Begin final coordinates

ATOMIC_POSITIONS (angstrom)
Zn              -1.0735556570        1.0841422360        1.1977635690    0   0   0
Zn              -5.3677776710        0.0395003420        3.2510724040    0   0   0
Zn              -9.6997933970       -1.0142840196        5.6513536463
Zn             -13.7072340587       -1.9892449478        7.7599039545
Zn              -1.6915203730        3.6244172340        1.1977635690    0   0   0
Zn              -5.9857423860        2.5797753400        3.2510724040    0   0   0
Zn             -10.3177574621        1.5259913542        5.6513525286
Zn             -14.3251982172        0.5510303851        7.7599035579
Zn               4.4565957100        1.0841422360        1.1977635690    0   0   0
Zn               0.1623736960        0.0395003420        3.2510724040    0   0   0
Zn              -4.1693980069       -1.0142366875        5.6517554437
Zn              -8.1765603972       -1.9891311354        7.7583865129
Zn               3.8386309950        3.6244172340        1.1977635690    0   0   0
Zn              -0.4555910190        2.5797753400        3.2510724040    0   0   0
Zn              -4.7873633254        1.5260381297        5.6517551910
Zn              -8.7945254544        0.5511440112        7.7583855680
Zn               1.6915202950        0.4114908680        0.8555452660    0   0   0
Zn              -2.6027017190       -0.6331510260        2.9088541010    0   0   0
Zn              -6.9771372861       -1.6972539748        5.1015389240
Zn             -11.1372612207       -2.7092745210        7.3681532079
Zn               1.0735555790        2.9517658660        0.8555452660    0   0   0
Zn              -3.2206664340        1.9071239720        2.9088541010    0   0   0
Zn              -7.5951019832        0.8430210325        5.1015384393
Zn             -11.7552265846       -0.1689994377        7.3681532979
Zn               7.2216716620        0.4114908680        0.8555452660    0   0   0
Zn               2.9274496480       -0.6331510260        2.9088541010    0   0   0
Zn              -1.4476190976       -1.6974004079        5.1035951865
Zn              -5.6073907655       -2.7093458332        7.3647087659
Zn               6.6037069470        2.9517658660        0.8555452660    0   0   0
Zn               2.3094849330        1.9071239720        2.9088541010    0   0   0
Zn              -2.0655825929        0.8428752633        5.1035941222
Zn              -6.2253546955       -0.1690704385        7.3647083007
End final coordinates

     Writing all to output data dir ./tmp/Zn002_2x2x4_relax_ecutrho250_ecutwfc25.save/ :
     XML data file, charge density, pseudopotentials, collected wavefunctions

     General routines

     Parallel routines

   This run was terminated on:   5:59:33  15Mar2025

   JOB DONE.
Note: The following floating-point exceptions are signalling: IEEE_DENORMAL
Note: The following floating-point exceptions are signalling: IEEE_DENORMAL
Note: The following floating-point exceptions are signalling: IEEE_DENORMAL
Note: The following floating-point exceptions are signalling: IEEE_DENORMAL
Note: The following floating-point exceptions are signalling: IEEE_DENORMAL
Note: The following floating-point exceptions are signalling: IEEE_DENORMAL
Note: The following floating-point exceptions are signalling: IEEE_DENORMAL