     Program PWSCF v.7.3.1 starts on 22Mar2025 at 15:32:44

     Waiting for input...
     Reading input from standard input
Warning: card &CELL ignored
Warning: card   CELL_DOFREE = 'ALL' ignored
Warning: card / ignored

     Current dimensions of program PWSCF are:
     Max number of different atomic species (ntypx) = 10
     Max number of k-points (npk) =  40000
     Max angular momentum in pseudopotentials (lmaxx) =  4

     R & G space division:  proc/nbgrp/npool/nimage =      16
     Subspace diagonalization in iterative solution of the eigenvalue problem:
     one sub-group per band group will be used

     Using Slab Decomposition

     bravais-lattice index     =            0
     lattice parameter (alat)  =      20.9009  a.u.
     unit-cell volume          =   16846.7507 (a.u.)^3
     number of atoms/cell      =           64
     number of atomic types    =            1
     number of electrons       =      1280.00
     number of Kohn-Sham states=          768
     kinetic-energy cutoff     =      30.0000  Ry
     charge density cutoff     =     120.0000  Ry
     scf convergence threshold =      7.3E-07
     mixing beta               =       0.7000
     number of iterations used =            8  plain     mixing
     Exchange-correlation= SLA  PW   PBE  PBE
                           (   1   4   3   4   0   0   0)

     celldm(1)=  20.900943  celldm(2)=   0.000000  celldm(3)=   0.000000
     celldm(4)=   0.000000  celldm(5)=   0.000000  celldm(6)=   0.000000

     crystal axes: (cart. coord. in units of alat)
               a(1) = (   1.000000   0.000000   0.000000 )
               a(2) = (  -0.223489   0.918700   0.000000 )
               a(3) = (  -4.200249  -1.021781   2.008375 )

     reciprocal axes: (cart. coord. in units 2 pi/alat)
               b(1) = (  1.000000  0.243267  2.215131 )
               b(2) = ( -0.000000  1.088495  0.553783 )
               b(3) = (  0.000000 -0.000000  0.497915 )

     PseudoPot. # 1 for Zn read from file:
     /home/ys/qepseudo/SSSP_1.3.0_PBE_efficiency/Zn_pbe_v1.uspp.F.UPF
     MD5 check sum: df62231357ef9e81f77b2b3087fa5675
     Pseudo is Ultrasoft, Zval = 20.0
     Generated by new atomic code, or converted to UPF format
     Using radial grid of  943 points,  6 beta functions with:
                l(1) =   0
                l(2) =   0
                l(3) =   1
                l(4) =   1
                l(5) =   2
                l(6) =   2
     Q(r) pseudized with  8 coefficients,  rinner =    1.100   1.100   1.100
                                                       1.100   1.100

     atomic species   valence    mass     pseudopotential
     Zn               20.00    65.38000     Zn( 1.00)

     No symmetry found

                                    s                        frac. trans.

      isym =  1     identity

 cryst.   s( 1) = (     1          0          0      )
                  (     0          1          0      )
                  (     0          0          1      )

 cart.    s( 1) = (  1.0000000  0.0000000  0.0000000 )
                  (  0.0000000  1.0000000  0.0000000 )
                  (  0.0000000  0.0000000  1.0000000 )

   Cartesian axes

     site n.     atom                  positions (alat units)
         1        Zn     tau(   1) = (  -0.0970639   0.0980210   0.1082939  )
         2        Zn     tau(   2) = (  -0.2088085   0.5573710   0.1082939  )
         3        Zn     tau(   3) = (  -0.4853192   0.0035714   0.2939406  )
         4        Zn     tau(   4) = (  -0.5970639   0.4629214   0.2939406  )
         5        Zn     tau(   5) = (  -0.8778168  -0.0917986   0.5024637  )
         6        Zn     tau(   6) = (  -0.9895264   0.3675466   0.5024137  )
         7        Zn     tau(   7) = (  -1.2406027  -0.1798552   0.6910406  )
         8        Zn     tau(   8) = (  -1.3522669   0.2794611   0.6910199  )
         9        Zn     tau(   9) = (  -0.1529362   0.3276960   0.1082939  )
        10        Zn     tau(  10) = (  -0.2646808   0.7870460   0.1082939  )
        11        Zn     tau(  11) = (  -0.5411915   0.2332464   0.2939406  )
        12        Zn     tau(  12) = (  -0.6529362   0.6925964   0.2939406  )
        13        Zn     tau(  13) = (  -0.9336469   0.1378867   0.5024624  )
        14        Zn     tau(  14) = (  -1.0454415   0.5972109   0.5024147  )
        15        Zn     tau(  15) = (  -1.2963824   0.0498229   0.6909782  )
        16        Zn     tau(  16) = (  -1.4082339   0.5091311   0.6910822  )
        17        Zn     tau(  17) = (   0.4029361   0.0980210   0.1082939  )
        18        Zn     tau(  18) = (   0.2911915   0.5573710   0.1082939  )
        19        Zn     tau(  19) = (   0.0146808   0.0035714   0.2939406  )
        20        Zn     tau(  20) = (  -0.0970639   0.4629214   0.2939406  )
        21        Zn     tau(  21) = (  -0.3778584  -0.0918024   0.5025944  )
        22        Zn     tau(  22) = (  -0.4896087   0.3675192   0.5025659  )
        23        Zn     tau(  23) = (  -0.7409254  -0.1799822   0.6911262  )
        24        Zn     tau(  24) = (  -0.8527216   0.2793980   0.6911899  )
        25        Zn     tau(  25) = (   0.3470638   0.3276960   0.1082939  )
        26        Zn     tau(  26) = (   0.2353192   0.7870460   0.1082939  )
        27        Zn     tau(  27) = (  -0.0411915   0.2332464   0.2939406  )
        28        Zn     tau(  28) = (  -0.1529362   0.6925964   0.2939406  )
        29        Zn     tau(  29) = (  -0.4337391   0.1378295   0.5025928  )
        30        Zn     tau(  30) = (  -0.5454721   0.5972380   0.5025679  )
        31        Zn     tau(  31) = (  -0.7968526   0.0496773   0.6911857  )
        32        Zn     tau(  32) = (  -0.9085381   0.5090884   0.6911313  )
        33        Zn     tau(  33) = (   0.1529362   0.0372043   0.0773528  )
        34        Zn     tau(  34) = (   0.0411915   0.4965543   0.0773528  )
        35        Zn     tau(  35) = (  -0.2353192  -0.0572454   0.2629995  )
        36        Zn     tau(  36) = (  -0.3470638   0.4021046   0.2629995  )
        37        Zn     tau(  37) = (  -0.6280951  -0.1529585   0.4553783  )
        38        Zn     tau(  38) = (  -0.7398296   0.3064181   0.4553934  )
        39        Zn     tau(  39) = (  -1.0052352  -0.2442836   0.6603749  )
        40        Zn     tau(  40) = (  -1.1168712   0.2151081   0.6603799  )
        41        Zn     tau(  41) = (   0.0970639   0.2668793   0.0773528  )
        42        Zn     tau(  42) = (  -0.0146808   0.7262293   0.0773528  )
        43        Zn     tau(  43) = (  -0.2911915   0.1724296   0.2629995  )
        44        Zn     tau(  44) = (  -0.4029361   0.6317796   0.2629995  )
        45        Zn     tau(  45) = (  -0.6839755   0.0767104   0.4553893  )
        46        Zn     tau(  46) = (  -0.7956904   0.5360988   0.4553814  )
        47        Zn     tau(  47) = (  -1.0610488  -0.0145857   0.6603978  )
        48        Zn     tau(  48) = (  -1.1728037   0.4447627   0.6603571  )
        49        Zn     tau(  49) = (   0.6529362   0.0372043   0.0773528  )
        50        Zn     tau(  50) = (   0.5411915   0.4965543   0.0773528  )
        51        Zn     tau(  51) = (   0.2646808  -0.0572454   0.2629995  )
        52        Zn     tau(  52) = (   0.1529362   0.4021046   0.2629995  )
        53        Zn     tau(  53) = (  -0.1280445  -0.1528982   0.4553743  )
        54        Zn     tau(  54) = (  -0.2397657   0.3063891   0.4553297  )
        55        Zn     tau(  55) = (  -0.5055002  -0.2443167   0.6603316  )
        56        Zn     tau(  56) = (  -0.6173111   0.2149623   0.6603566  )
        57        Zn     tau(  57) = (   0.5970639   0.2668793   0.0773528  )
        58        Zn     tau(  58) = (   0.4853192   0.7262293   0.0773528  )
        59        Zn     tau(  59) = (   0.2088085   0.1724296   0.2629995  )
        60        Zn     tau(  60) = (   0.0970639   0.6317796   0.2629995  )
        61        Zn     tau(  61) = (  -0.1838756   0.0767547   0.4553744  )
        62        Zn     tau(  62) = (  -0.2956772   0.5360837   0.4553280  )
        63        Zn     tau(  63) = (  -0.5614277  -0.0146977   0.6603020  )
        64        Zn     tau(  64) = (  -0.6731294   0.4446946   0.6603871  )

   Crystallographic axes

     site n.     atom                  positions (cryst. coord.)
         1        Zn     tau(   1) = (  0.1666667  0.1666667  0.0539212  )
         2        Zn     tau(   2) = (  0.1666667  0.6666667  0.0539212  )
         3        Zn     tau(   3) = (  0.1666667  0.1666667  0.1463574  )
         4        Zn     tau(   4) = (  0.1666667  0.6666667  0.1463574  )
         5        Zn     tau(   5) = (  0.2128747  0.1783335  0.2501842  )
         6        Zn     tau(   6) = (  0.2127978  0.6783005  0.2501593  )
         7        Zn     tau(   7) = (  0.2463902  0.1869149  0.3440795  )
         8        Zn     tau(   8) = (  0.2464166  0.6868668  0.3440692  )
         9        Zn     tau(   9) = (  0.1666667  0.4166667  0.0539212  )
        10        Zn     tau(  10) = (  0.1666667  0.9166667  0.0539212  )
        11        Zn     tau(  11) = (  0.1666667  0.4166667  0.1463574  )
        12        Zn     tau(  12) = (  0.1666667  0.9166667  0.1463574  )
        13        Zn     tau(  13) = (  0.2129167  0.4283440  0.2501836  )
        14        Zn     tau(  14) = (  0.2127547  0.9282895  0.2501598  )
        15        Zn     tau(  15) = (  0.2463452  0.4368838  0.3440484  )
        16        Zn     tau(  16) = (  0.2464587  0.9368959  0.3441002  )
        17        Zn     tau(  17) = (  0.6666667  0.1666667  0.0539212  )
        18        Zn     tau(  18) = (  0.6666667  0.6666667  0.0539212  )
        19        Zn     tau(  19) = (  0.6666667  0.1666667  0.1463574  )
        20        Zn     tau(  20) = (  0.6666667  0.6666667  0.1463574  )
        21        Zn     tau(  21) = (  0.7131217  0.1784017  0.2502493  )
        22        Zn     tau(  22) = (  0.7130461  0.6783550  0.2502351  )
        23        Zn     tau(  23) = (  0.7462263  0.1868242  0.3441221  )
        24        Zn     tau(  24) = (  0.7463231  0.6868923  0.3441538  )
        25        Zn     tau(  25) = (  0.6666667  0.4166667  0.0539212  )
        26        Zn     tau(  26) = (  0.6666667  0.9166667  0.0539212  )
        27        Zn     tau(  27) = (  0.6666667  0.4166667  0.1463574  )
        28        Zn     tau(  28) = (  0.6666667  0.9166667  0.1463574  )
        29        Zn     tau(  29) = (  0.7130994  0.4283539  0.2502485  )
        30        Zn     tau(  30) = (  0.7130701  0.9284039  0.2502361  )
        31        Zn     tau(  31) = (  0.7462994  0.4368403  0.3441517  )
        32        Zn     tau(  32) = (  0.7462528  0.9368766  0.3441246  )
        33        Zn     tau(  33) = (  0.3333333  0.0833333  0.0385151  )
        34        Zn     tau(  34) = (  0.3333333  0.5833333  0.0385151  )
        35        Zn     tau(  35) = (  0.3333333  0.0833333  0.1309514  )
        36        Zn     tau(  36) = (  0.3333333  0.5833333  0.1309514  )
        37        Zn     tau(  37) = (  0.3434179  0.0856861  0.2267397  )
        38        Zn     tau(  38) = (  0.3434679  0.5857235  0.2267472  )
[...]
     atom   21 type  1   force =     0.00000000    0.00000000    0.00000000
     atom   22 type  1   force =     0.00000000    0.00000000    0.00000000
     atom   23 type  1   force =     0.00000000    0.00000000    0.00000000
     atom   24 type  1   force =     0.00000000    0.00000000    0.00000000
     atom   25 type  1   force =     0.00000000    0.00000000    0.00000000
     atom   26 type  1   force =     0.00000000    0.00000000    0.00000000
     atom   27 type  1   force =     0.00000000    0.00000000    0.00000000
     atom   28 type  1   force =     0.00000000    0.00000000    0.00000000
     atom   29 type  1   force =     0.00000000    0.00000000    0.00000000
     atom   30 type  1   force =     0.00000000    0.00000000    0.00000000
     atom   31 type  1   force =     0.00000000    0.00000000    0.00000000
     atom   32 type  1   force =     0.00000000    0.00000000    0.00000000
     atom   33 type  1   force =     0.00000000    0.00000000    0.00000000
     atom   34 type  1   force =     0.00000000    0.00000000    0.00000000
     atom   35 type  1   force =     0.00000000    0.00000000    0.00000000
     atom   36 type  1   force =     0.00000000    0.00000000    0.00000000
     atom   37 type  1   force =     0.00000000    0.00000000    0.00000000
     atom   38 type  1   force =     0.00000000    0.00000000    0.00000000
     atom   39 type  1   force =     0.00000000    0.00000000    0.00000000
     atom   40 type  1   force =     0.00000000    0.00000000    0.00000000
     atom   41 type  1   force =     0.00000000    0.00000000    0.00000000
     atom   42 type  1   force =     0.00000000    0.00000000    0.00000000
     atom   43 type  1   force =     0.00000000    0.00000000    0.00000000
     atom   44 type  1   force =     0.00000000    0.00000000    0.00000000
     atom   45 type  1   force =     0.00000000    0.00000000    0.00000000
     atom   46 type  1   force =     0.00000000    0.00000000    0.00000000
     atom   47 type  1   force =     0.00000000    0.00000000    0.00000000
     atom   48 type  1   force =     0.00000000    0.00000000    0.00000000
     atom   49 type  1   force =     0.00000000    0.00000000    0.00000000
     atom   50 type  1   force =     0.00000000    0.00000000    0.00000000
     atom   51 type  1   force =     0.00000000    0.00000000    0.00000000
     atom   52 type  1   force =     0.00000000    0.00000000    0.00000000
     atom   53 type  1   force =     0.00000000    0.00000000    0.00000000
     atom   54 type  1   force =     0.00000000    0.00000000    0.00000000
     atom   55 type  1   force =     0.00000000    0.00000000    0.00000000
     atom   56 type  1   force =     0.00000000    0.00000000    0.00000000
     atom   57 type  1   force =     0.00000000    0.00000000    0.00000000
     atom   58 type  1   force =     0.00000000    0.00000000    0.00000000
     atom   59 type  1   force =     0.00000000    0.00000000    0.00000000
     atom   60 type  1   force =     0.00000000    0.00000000    0.00000000
     atom   61 type  1   force =     0.00000000    0.00000000    0.00000000
     atom   62 type  1   force =     0.00000000    0.00000000    0.00000000
     atom   63 type  1   force =     0.00000000    0.00000000    0.00000000
     atom   64 type  1   force =     0.00000000    0.00000000    0.00000000
     The Hubbard contrib.    to forces
     atom    1 type  1   force =     0.00000000    0.00000000    0.00000000
     atom    2 type  1   force =     0.00000000    0.00000000    0.00000000
     atom    3 type  1   force =     0.00000000    0.00000000    0.00000000
     atom    4 type  1   force =     0.00000000    0.00000000    0.00000000
     atom    5 type  1   force =     0.00000000    0.00000000    0.00000000
     atom    6 type  1   force =     0.00000000    0.00000000    0.00000000
     atom    7 type  1   force =     0.00000000    0.00000000    0.00000000
     atom    8 type  1   force =     0.00000000    0.00000000    0.00000000
     atom    9 type  1   force =     0.00000000    0.00000000    0.00000000
     atom   10 type  1   force =     0.00000000    0.00000000    0.00000000
     atom   11 type  1   force =     0.00000000    0.00000000    0.00000000
     atom   12 type  1   force =     0.00000000    0.00000000    0.00000000
     atom   13 type  1   force =     0.00000000    0.00000000    0.00000000
     atom   14 type  1   force =     0.00000000    0.00000000    0.00000000
     atom   15 type  1   force =     0.00000000    0.00000000    0.00000000
     atom   16 type  1   force =     0.00000000    0.00000000    0.00000000
     atom   17 type  1   force =     0.00000000    0.00000000    0.00000000
     atom   18 type  1   force =     0.00000000    0.00000000    0.00000000
     atom   19 type  1   force =     0.00000000    0.00000000    0.00000000
     atom   20 type  1   force =     0.00000000    0.00000000    0.00000000
     atom   21 type  1   force =     0.00000000    0.00000000    0.00000000
     atom   22 type  1   force =     0.00000000    0.00000000    0.00000000
     atom   23 type  1   force =     0.00000000    0.00000000    0.00000000
     atom   24 type  1   force =     0.00000000    0.00000000    0.00000000
     atom   25 type  1   force =     0.00000000    0.00000000    0.00000000
     atom   26 type  1   force =     0.00000000    0.00000000    0.00000000
     atom   27 type  1   force =     0.00000000    0.00000000    0.00000000
     atom   28 type  1   force =     0.00000000    0.00000000    0.00000000
     atom   29 type  1   force =     0.00000000    0.00000000    0.00000000
     atom   30 type  1   force =     0.00000000    0.00000000    0.00000000
     atom   31 type  1   force =     0.00000000    0.00000000    0.00000000
     atom   32 type  1   force =     0.00000000    0.00000000    0.00000000
     atom   33 type  1   force =     0.00000000    0.00000000    0.00000000
     atom   34 type  1   force =     0.00000000    0.00000000    0.00000000
     atom   35 type  1   force =     0.00000000    0.00000000    0.00000000
     atom   36 type  1   force =     0.00000000    0.00000000    0.00000000
     atom   37 type  1   force =     0.00000000    0.00000000    0.00000000
     atom   38 type  1   force =     0.00000000    0.00000000    0.00000000
     atom   39 type  1   force =     0.00000000    0.00000000    0.00000000
     atom   40 type  1   force =     0.00000000    0.00000000    0.00000000
     atom   41 type  1   force =     0.00000000    0.00000000    0.00000000
     atom   42 type  1   force =     0.00000000    0.00000000    0.00000000
     atom   43 type  1   force =     0.00000000    0.00000000    0.00000000
     atom   44 type  1   force =     0.00000000    0.00000000    0.00000000
     atom   45 type  1   force =     0.00000000    0.00000000    0.00000000
     atom   46 type  1   force =     0.00000000    0.00000000    0.00000000
     atom   47 type  1   force =     0.00000000    0.00000000    0.00000000
     atom   48 type  1   force =     0.00000000    0.00000000    0.00000000
     atom   49 type  1   force =     0.00000000    0.00000000    0.00000000
     atom   50 type  1   force =     0.00000000    0.00000000    0.00000000
     atom   51 type  1   force =     0.00000000    0.00000000    0.00000000
     atom   52 type  1   force =     0.00000000    0.00000000    0.00000000
     atom   53 type  1   force =     0.00000000    0.00000000    0.00000000
     atom   54 type  1   force =     0.00000000    0.00000000    0.00000000
     atom   55 type  1   force =     0.00000000    0.00000000    0.00000000
     atom   56 type  1   force =     0.00000000    0.00000000    0.00000000
     atom   57 type  1   force =     0.00000000    0.00000000    0.00000000
     atom   58 type  1   force =     0.00000000    0.00000000    0.00000000
     atom   59 type  1   force =     0.00000000    0.00000000    0.00000000
     atom   60 type  1   force =     0.00000000    0.00000000    0.00000000
     atom   61 type  1   force =     0.00000000    0.00000000    0.00000000
     atom   62 type  1   force =     0.00000000    0.00000000    0.00000000
     atom   63 type  1   force =     0.00000000    0.00000000    0.00000000
     atom   64 type  1   force =     0.00000000    0.00000000    0.00000000
     The SCF correction term to forces
     atom    1 type  1   force =     0.00014048    0.00005836    0.00033487
     atom    2 type  1   force =     0.00014964    0.00001184    0.00032614
     atom    3 type  1   force =    -0.00015873    0.00000835    0.00021650
     atom    4 type  1   force =    -0.00016820   -0.00008768    0.00021104
     atom    5 type  1   force =    -0.00011981   -0.00003832   -0.00028478
     atom    6 type  1   force =    -0.00017408   -0.00003362   -0.00026903
     atom    7 type  1   force =     0.00002806    0.00002891   -0.00029267
     atom    8 type  1   force =     0.00008582   -0.00000105   -0.00033957
     atom    9 type  1   force =     0.00014468    0.00000369    0.00035095
     atom   10 type  1   force =     0.00014584    0.00006545    0.00031029
     atom   11 type  1   force =    -0.00014473   -0.00005406    0.00021173
     atom   12 type  1   force =    -0.00018156   -0.00002503    0.00021486
     atom   13 type  1   force =    -0.00017392    0.00002529   -0.00029291
     atom   14 type  1   force =    -0.00012005   -0.00009690   -0.00026105
     atom   15 type  1   force =     0.00003540    0.00006788   -0.00032725
     atom   16 type  1   force =     0.00007820   -0.00004030   -0.00030493
     atom   17 type  1   force =    -0.00015330   -0.00001176    0.00031664
     atom   18 type  1   force =    -0.00015519   -0.00006287    0.00030251
     atom   19 type  1   force =    -0.00001517    0.00004840    0.00012706
     atom   20 type  1   force =    -0.00000459   -0.00005365    0.00018432
     atom   21 type  1   force =    -0.00002253    0.00005404   -0.00013585
     atom   22 type  1   force =     0.00003518   -0.00005165   -0.00014464
     atom   23 type  1   force =     0.00003876   -0.00003556   -0.00025249
     atom   24 type  1   force =    -0.00001624    0.00003913   -0.00026619
     atom   25 type  1   force =    -0.00015385   -0.00006853    0.00031564
     atom   26 type  1   force =    -0.00015463   -0.00000506    0.00030343
     atom   27 type  1   force =    -0.00002723    0.00001177    0.00016275
     atom   28 type  1   force =     0.00000668   -0.00001647    0.00014812
     atom   29 type  1   force =     0.00003143    0.00002222   -0.00014649
     atom   30 type  1   force =    -0.00001818   -0.00001997   -0.00013372
     atom   31 type  1   force =     0.00003387    0.00001954   -0.00025232
     atom   32 type  1   force =    -0.00001243   -0.00001479   -0.00026603
     atom   33 type  1   force =     0.00007807    0.00005082    0.00024721
     atom   34 type  1   force =     0.00007870   -0.00001254    0.00025659
     atom   35 type  1   force =     0.00005836    0.00007661    0.00031415
     atom   36 type  1   force =     0.00008377   -0.00004317    0.00034223
     atom   37 type  1   force =     0.00016370    0.00003755   -0.00026526
     atom   38 type  1   force =     0.00013931    0.00003600   -0.00028989
     atom   39 type  1   force =    -0.00016358   -0.00009469   -0.00030991
     atom   40 type  1   force =    -0.00022023    0.00000214   -0.00034799
     atom   41 type  1   force =     0.00007867   -0.00000055    0.00026396
     atom   42 type  1   force =     0.00007824    0.00003871    0.00023985
     atom   43 type  1   force =     0.00007006    0.00003468    0.00034489
     atom   44 type  1   force =     0.00007241    0.00000075    0.00031133
     atom   45 type  1   force =     0.00018509    0.00005872   -0.00029532
     atom   46 type  1   force =     0.00011806    0.00001503   -0.00025953
     atom   47 type  1   force =    -0.00021652    0.00000198   -0.00031905
     atom   48 type  1   force =    -0.00016784   -0.00009448   -0.00033924
     atom   49 type  1   force =    -0.00010962    0.00000775    0.00024563
     atom   50 type  1   force =    -0.00011302   -0.00006031    0.00023143
     atom   51 type  1   force =     0.00010468    0.00005399    0.00006607
     atom   52 type  1   force =     0.00007400   -0.00001018    0.00009147
     atom   53 type  1   force =     0.00000781    0.00002664   -0.00004268
     atom   54 type  1   force =     0.00002873   -0.00001759   -0.00001573
     atom   55 type  1   force =     0.00013443    0.00003994   -0.00033730
     atom   56 type  1   force =     0.00019548    0.00003987   -0.00035658
     atom   57 type  1   force =    -0.00011067   -0.00004947    0.00025520
     atom   58 type  1   force =    -0.00011152   -0.00000335    0.00022234
     atom   59 type  1   force =     0.00009025    0.00003863    0.00006214
     atom   60 type  1   force =     0.00008863    0.00000542    0.00009615
     atom   61 type  1   force =    -0.00001597    0.00007911   -0.00003744
     atom   62 type  1   force =     0.00005238   -0.00007063   -0.00002119
     atom   63 type  1   force =     0.00018916    0.00004929   -0.00035006
     atom   64 type  1   force =     0.00014066    0.00002990   -0.00034315

     Total force =     0.103110     Total SCF correction =     0.002312

     Computing stress (Cartesian axis) and pressure

          total   stress  (Ry/bohr**3)                   (kbar)     P=     -282.04
  -0.00199132  -0.00002330   0.00002702         -292.93       -3.43        3.97
  -0.00002330  -0.00192332   0.00000428           -3.43     -282.93        0.63
   0.00002702   0.00000428  -0.00183718            3.97        0.63     -270.26

     kinetic stress (kbar)  15082.56      6.25     -5.86
                                6.25  15053.69     -1.33
                               -5.86     -1.33  15108.22

     local   stress (kbar)**********   3424.25  -2315.86
                             3424.25**********   -559.00
                            -2315.86   -559.001207901.49

     nonloc. stress (kbar)  -1861.70     -6.81      4.48
                               -6.81  -1835.47      0.89
                                4.48      0.89  -1870.50

     hartree stress (kbar) 630437.28  -1471.35    970.73
                            -1471.35 636126.80    234.37
                              970.73    234.37-562370.66

     exc-cor stress (kbar)  -7542.39     -0.91      0.64
                               -0.91  -7538.92      0.16
                                0.64      0.16  -7545.64

     corecor stress (kbar)      0.00      0.00      0.00
                                0.00      0.00      0.00
                                0.00      0.00      0.00

     ewald   stress (kbar) 557232.83  -1954.86   1349.83
                            -1954.86 564795.07    325.54
                             1349.83    325.54-651493.18

     hubbard stress (kbar)      0.00      0.00      0.00
                                0.00      0.00      0.00
                                0.00      0.00      0.00

     DFT-D   stress (kbar)      0.00      0.00      0.00
                                0.00      0.00      0.00
                                0.00      0.00      0.00

     XDM     stress (kbar)      0.00      0.00      0.00
                                0.00      0.00      0.00
                                0.00      0.00      0.00

     dft-nl  stress (kbar)      0.00      0.00      0.00
                                0.00      0.00      0.00
                                0.00      0.00      0.00

     TS-vdW  stress (kbar)      0.00      0.00      0.00
                                0.00      0.00      0.00
                                0.00      0.00      0.00

     MDB     stress (kbar)      0.00      0.00      0.00
                                0.00      0.00      0.00
                                0.00      0.00      0.00

     3D-RISM stress (kbar)      0.00      0.00      0.00
                                0.00      0.00      0.00
                                0.00      0.00      0.00

     Writing all to output data dir ./tmp/Zn002_2x2x4_scf.save/ :
     XML data file, charge density, pseudopotentials, collected wavefunctions

     General routines

     Parallel routines

   This run was terminated on:  18: 9:36  22Mar2025

   JOB DONE.
Note: The following floating-point exceptions are signalling: IEEE_DENORMAL
Note: The following floating-point exceptions are signalling: IEEE_DENORMAL
Note: The following floating-point exceptions are signalling: IEEE_DENORMAL
Note: The following floating-point exceptions are signalling: IEEE_DENORMAL
Note: The following floating-point exceptions are signalling: IEEE_DENORMAL
Note: The following floating-point exceptions are signalling: IEEE_DENORMAL
Note: The following floating-point exceptions are signalling: IEEE_DENORMAL