     Program PWSCF v.7.3.1 starts on  5Apr2025 at  1:43: 8

     Waiting for input...
     Reading input from standard input
Warning: card &CELL ignored
Warning: card   CELL_DOFREE = 'ALL' ignored
Warning: card / ignored

     Current dimensions of program PWSCF are:
     Max number of different atomic species (ntypx) = 10
     Max number of k-points (npk) =  40000
     Max angular momentum in pseudopotentials (lmaxx) =  4
     Presently stress not available with electric field and gates

     File ./tmp/01_Zn002_topsite_upright.update deleted, as requested

     File ./tmp/01_Zn002_topsite_upright.bfgs deleted, as requested
     file C.pbe-n-kjpaw_psl.1.0.0.UPF: wavefunction(s)  2S 2P renormalized

     R & G space division:  proc/nbgrp/npool/nimage =      31
     Subspace diagonalization in iterative solution of the eigenvalue problem:
     one sub-group per band group will be used

     Using Slab Decomposition

     bravais-lattice index     =            0
     lattice parameter (alat)  =      19.7617  a.u.
     unit-cell volume          =   15176.5939 (a.u.)^3
     number of atoms/cell      =           63
     number of atomic types    =            4
     number of electrons       =       996.00
     number of Kohn-Sham states=          598
     kinetic-energy cutoff     =      40.0000  Ry
     charge density cutoff     =     280.0000  Ry
     scf convergence threshold =      1.0E-06
     mixing beta               =       0.4000
     number of iterations used =            8  plain     mixing
     Exchange-correlation= PBE
                           (   1   4   3   4   0   0   0)

     celldm(1)=  19.761696  celldm(2)=   0.000000  celldm(3)=   0.000000
     celldm(4)=   0.000000  celldm(5)=   0.000000  celldm(6)=   0.000000

     crystal axes: (cart. coord. in units of alat)
               a(1) = (   1.000000   0.000000   0.000000 )
               a(2) = (  -0.500000   0.866025   0.000000 )
               a(3) = (   0.000000   0.000000   2.270759 )

     reciprocal axes: (cart. coord. in units 2 pi/alat)
               b(1) = (  1.000000  0.577350 -0.000000 )
               b(2) = (  0.000000  1.154701  0.000000 )
               b(3) = (  0.000000 -0.000000  0.440381 )

     PseudoPot. # 1 for Zn read from file:
     /home/yongsang/Research/PSID_server_room/qe/[00]QE/qepseudo/SSSP_1.3.0_PBE_efficiency/Zn_pbe_v1.uspp.F.UPF
     MD5 check sum: df62231357ef9e81f77b2b3087fa5675
     Pseudo is Ultrasoft, Zval = 20.0
     Generated by new atomic code, or converted to UPF format
     Using radial grid of  943 points,  6 beta functions with:
                l(1) =   0
                l(2) =   0
                l(3) =   1
                l(4) =   1
                l(5) =   2
                l(6) =   2
     Q(r) pseudized with  8 coefficients,  rinner =    1.100   1.100   1.100
                                                       1.100   1.100

     PseudoPot. # 2 for N  read from file:
     /home/yongsang/Research/PSID_server_room/qe/[00]QE/qepseudo/SSSP_1.3.0_PBE_efficiency/N.pbe-n-radius_5.UPF
     MD5 check sum: 16739722b17309cd8fe442a2ace49922
     Pseudo is Ultrasoft + core correction, Zval =  5.0
     Generated using "atomic" code by A. Dal Corso  v.5.1
     Using radial grid of 1085 points,  4 beta functions with:
                l(1) =   0
                l(2) =   0
                l(3) =   1
                l(4) =   1
     Q(r) pseudized with 0 coefficients

     PseudoPot. # 3 for C  read from file:
     /home/yongsang/Research/PSID_server_room/qe/[00]QE/qepseudo/SSSP_1.3.0_PBE_efficiency/C.pbe-n-kjpaw_psl.1.0.0.UPF
     MD5 check sum: 5d2aebdfa2cae82b50a7e79e9516da0f
     Pseudo is Projector augmented-wave + core cor, Zval =  4.0
     Generated using "atomic" code by A. Dal Corso  v.5.1
     Shape of augmentation charge: PSQ
     Using radial grid of 1073 points,  4 beta functions with:
                l(1) =   0
                l(2) =   0
                l(3) =   1
                l(4) =   1
     Q(r) pseudized with 0 coefficients

     PseudoPot. # 4 for H  read from file:
     /home/yongsang/Research/PSID_server_room/qe/[00]QE/qepseudo/SSSP_1.3.0_PBE_efficiency/H.pbe-rrkjus_psl.1.0.0.UPF
     MD5 check sum: f52b6d4d1c606e5624b1dc7b2218f220
     Pseudo is Ultrasoft, Zval =  1.0
     Generated using "atomic" code by A. Dal Corso  v.5.1
     Using radial grid of  929 points,  2 beta functions with:
                l(1) =   0
                l(2) =   0
     Q(r) pseudized with 0 coefficients

     atomic species   valence    mass     pseudopotential
     Zn               20.00    65.38000     Zn( 1.00)
     N                 5.00    14.00674     N ( 1.00)
     C                 4.00    12.01070     C ( 1.00)
     H                 1.00     1.00794     H ( 1.00)

     No symmetry found

                                    s                        frac. trans.

      isym =  1     identity

 cryst.   s( 1) = (     1          0          0      )
                  (     0          1          0      )
                  (     0          0          1      )

 cart.    s( 1) = (  1.0000000  0.0000000  0.0000000 )
                  (  0.0000000  1.0000000  0.0000000 )
                  (  0.0000000  0.0000000  1.0000000 )

   Cartesian axes

     site n.     atom                  positions (alat units)
         1        Zn     tau(   1) = (   0.0000000   0.1443375   0.1164998  )
         2        Zn     tau(   2) = (   0.5000000   0.1443375   0.1164998  )
         3        Zn     tau(   3) = (  -0.0000499   0.1441562   0.5930126  )
         4        Zn     tau(   4) = (   0.4999768   0.1440598   0.5929798  )
         5        Zn     tau(   5) = (  -0.1250000   0.3608439   0.1164998  )
         6        Zn     tau(   6) = (   0.3750000   0.3608439   0.1164998  )
         7        Zn     tau(   7) = (  -0.1250128   0.3606880   0.5938622  )
         8        Zn     tau(   8) = (   0.3750816   0.3605818   0.5901549  )
         9        Zn     tau(   9) = (  -0.2500000   0.5773502   0.1164998  )
        10        Zn     tau(  10) = (   0.2500000   0.5773502   0.1164998  )
        11        Zn     tau(  11) = (  -0.2500557   0.5773010   0.5930873  )
        12        Zn     tau(  12) = (   0.2498461   0.5777611   0.5690006  )
        13        Zn     tau(  13) = (  -0.3750000   0.7938567   0.1164998  )
        14        Zn     tau(  14) = (   0.1250000   0.7938567   0.1164998  )
        15        Zn     tau(  15) = (  -0.3750956   0.7937092   0.5938035  )
        16        Zn     tau(  16) = (   0.1250071   0.7937671   0.5927657  )
        17        Zn     tau(  17) = (   0.2500000   0.1443375   0.1164998  )
        18        Zn     tau(  18) = (   0.7500000   0.1443375   0.1164998  )
        19        Zn     tau(  19) = (   0.2499675   0.1442893   0.5938620  )
        20        Zn     tau(  20) = (   0.7498989   0.1441620   0.5935777  )
        21        Zn     tau(  21) = (   0.1250000   0.3608439   0.1164998  )
        22        Zn     tau(  22) = (   0.6250000   0.3608439   0.1164998  )
        23        Zn     tau(  23) = (   0.1247759   0.3605782   0.5900454  )
        24        Zn     tau(  24) = (   0.6249342   0.3606883   0.5938306  )
        25        Zn     tau(  25) = (   0.0000000   0.5773502   0.1164998  )
        26        Zn     tau(  26) = (   0.5000000   0.5773502   0.1164998  )
        27        Zn     tau(  27) = (  -0.0001966   0.5771600   0.5914390  )
        28        Zn     tau(  28) = (   0.5000085   0.5771320   0.5913888  )
        29        Zn     tau(  29) = (  -0.1250000   0.7938567   0.1164998  )
        30        Zn     tau(  30) = (   0.3750000   0.7938567   0.1164998  )
        31        Zn     tau(  31) = (  -0.1249754   0.7937326   0.5936214  )
        32        Zn     tau(  32) = (   0.3749417   0.7939463   0.5919976  )
        33        Zn     tau(  33) = (   0.1250863   0.0719987   0.3549329  )
        34        Zn     tau(  34) = (   0.6247109   0.0724305   0.3553400  )
        35        Zn     tau(  35) = (  -0.0003023   0.2881651   0.3553511  )
        36        Zn     tau(  36) = (   0.5002824   0.2881015   0.3550122  )
        37        Zn     tau(  37) = (  -0.1255661   0.5051525   0.3550786  )
        38        Zn     tau(  38) = (   0.3762916   0.5044008   0.3518535  )
        39        Zn     tau(  39) = (  -0.2499926   0.7218306   0.3549053  )
        40        Zn     tau(  40) = (   0.2499333   0.7233675   0.3519747  )
        41        Zn     tau(  41) = (   0.3748060   0.0719867   0.3548153  )
        42        Zn     tau(  42) = (   0.8752270   0.0725633   0.3550895  )
        43        Zn     tau(  43) = (   0.2498815   0.2877851   0.3545638  )
        44        Zn     tau(  44) = (   0.7499983   0.2885973   0.3543649  )
        45        Zn     tau(  45) = (   0.1235184   0.5044439   0.3519742  )
        46        Zn     tau(  46) = (   0.6254711   0.5051794   0.3554334  )
        47        Zn     tau(  47) = (  -0.0006204   0.7220845   0.3549759  )
        48        Zn     tau(  48) = (   0.5006051   0.7220501   0.3549344  )
        49        C      tau(  49) = (   0.3533534   0.6053919   1.2094210  )
        50        C      tau(  50) = (   0.2536770   0.5440368   1.2739583  )
        51        C      tau(  51) = (   0.3537061   0.6106061   1.0759586  )
        52        C      tau(  52) = (   0.1535193   0.4875022   1.2059398  )
        53        C      tau(  53) = (   0.2528989   0.5532374   1.0106343  )
        54        C      tau(  54) = (   0.1523317   0.4917175   1.0724313  )
        55        N      tau(  55) = (   0.2519762   0.5592294   0.8696514  )
        56        H      tau(  56) = (   0.4312722   0.6489776   1.2631997  )
        57        H      tau(  57) = (   0.2543173   0.5398253   1.3781548  )
        58        H      tau(  58) = (   0.3425633   0.5572280   0.8288693  )
        59        H      tau(  59) = (   0.4309347   0.6581191   1.0240146  )
        60        H      tau(  60) = (   0.0763124   0.4396297   1.2570234  )
        61        H      tau(  61) = (   0.2038114   0.4837605   0.8265985  )
        62        H      tau(  62) = (   0.0748468   0.4477119   1.0177891  )
        63        H      tau(  63) = (   0.2092607   0.6408513   0.8320093  )

     DFT-D3 Dispersion Correction (3-body terms):
       Reference C6 values for interpolation:

         atom   Coordination number   C6
         H          0.912             6.05
         H          0.000            15.18
         C          0.000            98.23
         C          0.987            86.49
         C          1.998            58.72
         C          2.999            51.56
         C          3.984            36.41
         N          0.000            50.54
         N          0.994            44.25
         N          2.014            39.35
         N          2.990            31.16
         Zn         0.000           681.04
         Zn         1.942           306.91

       Values used:

         atom   Coordination number  R0_AB[au]  C6      C8
         Zn         6.705            3.053    306.91  23930.67
         Zn         6.707            3.053    306.91  23930.67
         Zn         6.735            3.053    306.91  23930.67
[...]
     atom   51 type  3   force =    -0.00037657   -0.00053107    0.00154320
     atom   52 type  3   force =    -0.00656417   -0.00393501    0.00009716
     atom   53 type  3   force =     0.00571429    0.00268214    0.01756748
     atom   54 type  3   force =    -0.00589996   -0.00337716    0.00331013
     atom   55 type  2   force =     0.00304352   -0.00132167   -0.00273669
     atom   56 type  4   force =     0.00000000    0.00000000    0.00000000
     atom   57 type  4   force =     0.00000000    0.00000000    0.00000000
     atom   58 type  4   force =     0.00000000    0.00000000    0.00000000
     atom   59 type  4   force =     0.00000000    0.00000000    0.00000000
     atom   60 type  4   force =     0.00000000    0.00000000    0.00000000
     atom   61 type  4   force =     0.00000000    0.00000000    0.00000000
     atom   62 type  4   force =     0.00000000    0.00000000    0.00000000
     atom   63 type  4   force =     0.00000000    0.00000000    0.00000000
     The Hubbard contrib.    to forces
     atom    1 type  1   force =     0.00000000    0.00000000    0.00000000
     atom    2 type  1   force =     0.00000000    0.00000000    0.00000000
     atom    3 type  1   force =     0.00000000    0.00000000    0.00000000
     atom    4 type  1   force =     0.00000000    0.00000000    0.00000000
     atom    5 type  1   force =     0.00000000    0.00000000    0.00000000
     atom    6 type  1   force =     0.00000000    0.00000000    0.00000000
     atom    7 type  1   force =     0.00000000    0.00000000    0.00000000
     atom    8 type  1   force =     0.00000000    0.00000000    0.00000000
     atom    9 type  1   force =     0.00000000    0.00000000    0.00000000
     atom   10 type  1   force =     0.00000000    0.00000000    0.00000000
     atom   11 type  1   force =     0.00000000    0.00000000    0.00000000
     atom   12 type  1   force =     0.00000000    0.00000000    0.00000000
     atom   13 type  1   force =     0.00000000    0.00000000    0.00000000
     atom   14 type  1   force =     0.00000000    0.00000000    0.00000000
     atom   15 type  1   force =     0.00000000    0.00000000    0.00000000
     atom   16 type  1   force =     0.00000000    0.00000000    0.00000000
     atom   17 type  1   force =     0.00000000    0.00000000    0.00000000
     atom   18 type  1   force =     0.00000000    0.00000000    0.00000000
     atom   19 type  1   force =     0.00000000    0.00000000    0.00000000
     atom   20 type  1   force =     0.00000000    0.00000000    0.00000000
     atom   21 type  1   force =     0.00000000    0.00000000    0.00000000
     atom   22 type  1   force =     0.00000000    0.00000000    0.00000000
     atom   23 type  1   force =     0.00000000    0.00000000    0.00000000
     atom   24 type  1   force =     0.00000000    0.00000000    0.00000000
     atom   25 type  1   force =     0.00000000    0.00000000    0.00000000
     atom   26 type  1   force =     0.00000000    0.00000000    0.00000000
     atom   27 type  1   force =     0.00000000    0.00000000    0.00000000
     atom   28 type  1   force =     0.00000000    0.00000000    0.00000000
     atom   29 type  1   force =     0.00000000    0.00000000    0.00000000
     atom   30 type  1   force =     0.00000000    0.00000000    0.00000000
     atom   31 type  1   force =     0.00000000    0.00000000    0.00000000
     atom   32 type  1   force =     0.00000000    0.00000000    0.00000000
     atom   33 type  1   force =     0.00000000    0.00000000    0.00000000
     atom   34 type  1   force =     0.00000000    0.00000000    0.00000000
     atom   35 type  1   force =     0.00000000    0.00000000    0.00000000
     atom   36 type  1   force =     0.00000000    0.00000000    0.00000000
     atom   37 type  1   force =     0.00000000    0.00000000    0.00000000
     atom   38 type  1   force =     0.00000000    0.00000000    0.00000000
     atom   39 type  1   force =     0.00000000    0.00000000    0.00000000
     atom   40 type  1   force =     0.00000000    0.00000000    0.00000000
     atom   41 type  1   force =     0.00000000    0.00000000    0.00000000
     atom   42 type  1   force =     0.00000000    0.00000000    0.00000000
     atom   43 type  1   force =     0.00000000    0.00000000    0.00000000
     atom   44 type  1   force =     0.00000000    0.00000000    0.00000000
     atom   45 type  1   force =     0.00000000    0.00000000    0.00000000
     atom   46 type  1   force =     0.00000000    0.00000000    0.00000000
     atom   47 type  1   force =     0.00000000    0.00000000    0.00000000
     atom   48 type  1   force =     0.00000000    0.00000000    0.00000000
     atom   49 type  3   force =     0.00000000    0.00000000    0.00000000
     atom   50 type  3   force =     0.00000000    0.00000000    0.00000000
     atom   51 type  3   force =     0.00000000    0.00000000    0.00000000
     atom   52 type  3   force =     0.00000000    0.00000000    0.00000000
     atom   53 type  3   force =     0.00000000    0.00000000    0.00000000
     atom   54 type  3   force =     0.00000000    0.00000000    0.00000000
     atom   55 type  2   force =     0.00000000    0.00000000    0.00000000
     atom   56 type  4   force =     0.00000000    0.00000000    0.00000000
     atom   57 type  4   force =     0.00000000    0.00000000    0.00000000
     atom   58 type  4   force =     0.00000000    0.00000000    0.00000000
     atom   59 type  4   force =     0.00000000    0.00000000    0.00000000
     atom   60 type  4   force =     0.00000000    0.00000000    0.00000000
     atom   61 type  4   force =     0.00000000    0.00000000    0.00000000
     atom   62 type  4   force =     0.00000000    0.00000000    0.00000000
     atom   63 type  4   force =     0.00000000    0.00000000    0.00000000
     The SCF correction term to forces
     atom    1 type  1   force =    -0.00000000    0.00000000    0.00000000
     atom    2 type  1   force =    -0.00000000   -0.00000000    0.00000000
     atom    3 type  1   force =     0.00015675    0.00042171   -0.00030382
     atom    4 type  1   force =    -0.00073620   -0.00025566   -0.00007493
     atom    5 type  1   force =     0.00000000   -0.00000000    0.00000000
     atom    6 type  1   force =    -0.00000000   -0.00000000    0.00000000
     atom    7 type  1   force =    -0.00012681    0.00017938   -0.00061610
     atom    8 type  1   force =    -0.00052258   -0.00084745    0.00012414
     atom    9 type  1   force =     0.00000000   -0.00000000    0.00000000
     atom   10 type  1   force =    -0.00000000   -0.00000000    0.00000000
     atom   11 type  1   force =     0.00032481   -0.00015779   -0.00030596
     atom   12 type  1   force =    -0.00105198   -0.00077852    0.00006159
     atom   13 type  1   force =     0.00000000    0.00000000    0.00000000
     atom   14 type  1   force =    -0.00000000   -0.00000000    0.00000000
     atom   15 type  1   force =     0.00061710    0.00009489    0.00001423
     atom   16 type  1   force =    -0.00122909   -0.00015649    0.00009575
     atom   17 type  1   force =    -0.00000000    0.00000000    0.00000000
     atom   18 type  1   force =     0.00000000    0.00000000    0.00000000
     atom   19 type  1   force =     0.00069292    0.00023823   -0.00023194
     atom   20 type  1   force =    -0.00038473    0.00041766   -0.00033964
     atom   21 type  1   force =    -0.00000000   -0.00000000    0.00000000
     atom   22 type  1   force =     0.00000000   -0.00000000    0.00000000
     atom   23 type  1   force =     0.00028944    0.00008183   -0.00037107
     atom   24 type  1   force =     0.00000325   -0.00023214   -0.00029810
     atom   25 type  1   force =    -0.00000000   -0.00000000    0.00000000
     atom   26 type  1   force =     0.00000000   -0.00000000    0.00000000
     atom   27 type  1   force =    -0.00000514    0.00017264   -0.00037395
     atom   28 type  1   force =     0.00029038   -0.00049784    0.00013810
     atom   29 type  1   force =     0.00000000   -0.00000000    0.00000000
     atom   30 type  1   force =     0.00000000    0.00000000    0.00000000
     atom   31 type  1   force =     0.00041385    0.00030777   -0.00025272
     atom   32 type  1   force =    -0.00012130    0.00018390    0.00011024
     atom   33 type  1   force =     0.00021817    0.00076086   -0.00009362
     atom   34 type  1   force =    -0.00002355    0.00068914    0.00021107
     atom   35 type  1   force =    -0.00042301    0.00041094   -0.00070486
     atom   36 type  1   force =     0.00061538   -0.00033993    0.00047366
     atom   37 type  1   force =     0.00012371   -0.00054702   -0.00046585
     atom   38 type  1   force =     0.00013605   -0.00069489    0.00060544
     atom   39 type  1   force =     0.00078689   -0.00021833    0.00014671
     atom   40 type  1   force =    -0.00054945    0.00044060    0.00033530
     atom   41 type  1   force =     0.00038278    0.00020956    0.00044697
     atom   42 type  1   force =    -0.00018433    0.00123178   -0.00040633
     atom   43 type  1   force =    -0.00014465   -0.00012946    0.00021755
     atom   44 type  1   force =     0.00035386    0.00024704   -0.00046405
     atom   45 type  1   force =    -0.00076410   -0.00042449   -0.00004284
     atom   46 type  1   force =     0.00097464   -0.00077894    0.00009273
     atom   47 type  1   force =    -0.00021159   -0.00007922    0.00019249
     atom   48 type  1   force =     0.00042890    0.00022011    0.00019930
     atom   49 type  3   force =     0.00008719    0.00004833    0.00000285
     atom   50 type  3   force =    -0.00012837   -0.00008096    0.00012105
     atom   51 type  3   force =     0.00007660    0.00004104   -0.00012524
     atom   52 type  3   force =    -0.00013648   -0.00008392    0.00000871
     atom   53 type  3   force =    -0.00012031   -0.00007293   -0.00018836
     atom   54 type  3   force =    -0.00009952   -0.00005963   -0.00012347
     atom   55 type  2   force =    -0.00015965   -0.00010163   -0.00014020
     atom   56 type  4   force =     0.00002869    0.00001613    0.00000756
     atom   57 type  4   force =    -0.00003584   -0.00002282    0.00003928
     atom   58 type  4   force =    -0.00000016   -0.00000454   -0.00002278
     atom   59 type  4   force =     0.00002415    0.00001323   -0.00002790
     atom   60 type  4   force =    -0.00002158   -0.00001340    0.00000410
     atom   61 type  4   force =    -0.00001654   -0.00001279   -0.00002553
     atom   62 type  4   force =    -0.00001067   -0.00000647   -0.00002174
     atom   63 type  4   force =    -0.00003287   -0.00001832   -0.00002280

     DFT-D3 dispersion contribution to forces:
     atom    1 type  1   force =    -0.00000217    0.00000142    0.00257066
     atom    2 type  1   force =     0.00000060    0.00000502    0.00257283
     atom    3 type  1   force =     0.00002152    0.00004897   -0.00244144
     atom    4 type  1   force =    -0.00000523    0.00001778   -0.00249132
     atom    5 type  1   force =    -0.00001507   -0.00000687    0.00255797
     atom    6 type  1   force =    -0.00001319    0.00005303    0.00266537
     atom    7 type  1   force =     0.00023403    0.00010467   -0.00229420
     atom    8 type  1   force =    -0.00046434    0.00072294   -0.00143437
     atom    9 type  1   force =     0.00000271   -0.00000129    0.00257188
     atom   10 type  1   force =     0.00000154   -0.00000358    0.00275719
     atom   11 type  1   force =    -0.00001929   -0.00001147   -0.00244896
     atom   12 type  1   force =     0.00001240   -0.00007949   -0.00185159
     atom   13 type  1   force =    -0.00001991   -0.00001150    0.00259178
     atom   14 type  1   force =     0.00003919   -0.00003645    0.00264666
     atom   15 type  1   force =    -0.00016212   -0.00010639   -0.00235848
     atom   16 type  1   force =     0.00038479   -0.00073172   -0.00153260
     atom   17 type  1   force =    -0.00000021    0.00002974    0.00260246
     atom   18 type  1   force =     0.00000386    0.00002118    0.00255199
     atom   19 type  1   force =    -0.00001703    0.00025203   -0.00231297
     atom   20 type  1   force =    -0.00000214   -0.00015791   -0.00243077
     atom   21 type  1   force =     0.00001601    0.00004980    0.00265810
     atom   22 type  1   force =     0.00001266   -0.00001263    0.00255613
     atom   23 type  1   force =     0.00043420    0.00071057   -0.00137358
     atom   24 type  1   force =    -0.00019912    0.00012808   -0.00233967
     atom   25 type  1   force =     0.00005295   -0.00002003    0.00265463
     atom   26 type  1   force =    -0.00005305   -0.00001632    0.00265053
     atom   27 type  1   force =     0.00082489   -0.00008263   -0.00145305
     atom   28 type  1   force =    -0.00085882   -0.00003342   -0.00136571
     atom   29 type  1   force =     0.00001970   -0.00000863    0.00259258
     atom   30 type  1   force =    -0.00003864   -0.00003468    0.00265079
     atom   31 type  1   force =     0.00013733   -0.00008590   -0.00242158
     atom   32 type  1   force =    -0.00034367   -0.00074267   -0.00150106
     atom   33 type  1   force =     0.00000820   -0.00001790   -0.00001620
     atom   34 type  1   force =    -0.00002340   -0.00001051    0.00005394
     atom   35 type  1   force =     0.00002961   -0.00001474    0.00009063
     atom   36 type  1   force =    -0.00002318   -0.00001808    0.00006455
     atom   37 type  1   force =    -0.00001414    0.00002836    0.00004235
     atom   38 type  1   force =     0.00000487   -0.00000279    0.00034893
     atom   39 type  1   force =     0.00000313    0.00001898   -0.00000967
     atom   40 type  1   force =    -0.00000092    0.00000272    0.00029693
     atom   41 type  1   force =    -0.00000965   -0.00002224   -0.00001466
     atom   42 type  1   force =     0.00002204   -0.00000644    0.00005609
     atom   43 type  1   force =    -0.00000906   -0.00023603   -0.00006614
     atom   44 type  1   force =     0.00000500    0.00000041   -0.00003523
     atom   45 type  1   force =    -0.00001015   -0.00000104    0.00035846
     atom   46 type  1   force =     0.00001327    0.00003370    0.00006687
     atom   47 type  1   force =    -0.00022870    0.00013179   -0.00012657
     atom   48 type  1   force =     0.00022619    0.00012876   -0.00011422
     atom   49 type  3   force =     0.00015829    0.00009914   -0.00027344
     atom   50 type  3   force =    -0.00000268   -0.00001031    0.00018812
     atom   51 type  3   force =     0.00017253    0.00014649   -0.00052190
     atom   52 type  3   force =    -0.00015460   -0.00008561   -0.00028222
     atom   53 type  3   force =     0.00000412   -0.00000586   -0.00100467
     atom   54 type  3   force =    -0.00021313   -0.00008428   -0.00053732
     atom   55 type  2   force =     0.00000281   -0.00002395   -0.00162274
     atom   56 type  4   force =    -0.00001263   -0.00000579   -0.00002268
     atom   57 type  4   force =    -0.00000094    0.00000696   -0.00008911
     atom   58 type  4   force =     0.00004680   -0.00006186   -0.00204866
     atom   59 type  4   force =    -0.00004512   -0.00000927   -0.00040170
     atom   60 type  4   force =     0.00000861    0.00000646   -0.00002386
     atom   61 type  4   force =     0.00006041   -0.00002813   -0.00203769
     atom   62 type  4   force =     0.00002661    0.00003625   -0.00041717
     atom   63 type  4   force =    -0.00002855    0.00004315   -0.00170121

     Total force =    28.518401     Total SCF correction =     0.004413

     DFT-D3 dispersion Force =     0.014083

     Writing all to output data dir ./tmp/01_Zn002_topsite_upright.save/ :
     XML data file, charge density, pseudopotentials, collected wavefunctions

     General routines

     Parallel routines

     PAW routines

   This run was terminated on:   3:12:40   5Apr2025

   JOB DONE.
Note: The following floating-point exceptions are signalling: IEEE_DENORMAL
Note: The following floating-point exceptions are signalling: IEEE_DENORMAL
Note: The following floating-point exceptions are signalling: IEEE_DENORMAL
Note: The following floating-point exceptions are signalling: IEEE_DENORMAL
Note: The following floating-point exceptions are signalling: IEEE_DENORMAL
Note: The following floating-point exceptions are signalling: IEEE_DENORMAL
Note: The following floating-point exceptions are signalling: IEEE_DENORMAL
Note: The following floating-point exceptions are signalling: IEEE_DENORMAL
Note: The following floating-point exceptions are signalling: IEEE_DENORMAL
Note: The following floating-point exceptions are signalling: IEEE_DENORMAL
Note: The following floating-point exceptions are signalling: IEEE_DENORMAL
Note: The following floating-point exceptions are signalling: IEEE_DENORMAL