     Program PWSCF v.7.3.1 starts on 25Mar2025 at  3:56:25

     Waiting for input...
     Reading input from standard input
Warning: card &CELL ignored
Warning: card   CELL_DOFREE = 'ALL' ignored
Warning: card / ignored

     Current dimensions of program PWSCF are:
     Max number of different atomic species (ntypx) = 10
     Max number of k-points (npk) =  40000
     Max angular momentum in pseudopotentials (lmaxx) =  4
     Message from routine input:
     WARNING: "startingwfc" set to atomic+random may spoil restart
     Message from routine input:
     WARNING: "startingpot" set to atomic may spoil restart
     file C.pbe-n-kjpaw_psl.1.0.0.UPF: wavefunction(s)  2S 2P renormalized

     R & G space division:  proc/nbgrp/npool/nimage =      34
     Subspace diagonalization in iterative solution of the eigenvalue problem:
     one sub-group per band group will be used

     Using Slab Decomposition

     bravais-lattice index     =            0
     lattice parameter (alat)  =      20.9009  a.u.
     unit-cell volume          =   16846.7507 (a.u.)^3
     number of atoms/cell      =           79
     number of atomic types    =            4
     number of electrons       =      1324.00
     number of Kohn-Sham states=          794
     kinetic-energy cutoff     =      30.0000  Ry
     charge density cutoff     =     120.0000  Ry
     scf convergence threshold =      7.3E-07
     mixing beta               =       0.7000
     number of iterations used =            8  plain     mixing
     energy convergence thresh.=      1.0E-05
     force convergence thresh. =      5.0E-04
     Exchange-correlation= PBE
                           (   1   4   3   4   0   0   0)
     nstep                     =          100

     celldm(1)=  20.900943  celldm(2)=   0.000000  celldm(3)=   0.000000
     celldm(4)=   0.000000  celldm(5)=   0.000000  celldm(6)=   0.000000

     crystal axes: (cart. coord. in units of alat)
               a(1) = (   1.000000   0.000000   0.000000 )
               a(2) = (  -0.223489   0.918700   0.000000 )
               a(3) = (  -4.200249  -1.021781   2.008375 )

     reciprocal axes: (cart. coord. in units 2 pi/alat)
               b(1) = (  1.000000  0.243267  2.215131 )
               b(2) = ( -0.000000  1.088495  0.553783 )
               b(3) = (  0.000000 -0.000000  0.497915 )

     PseudoPot. # 1 for Zn read from file:
     /home/ys/qepseudo/SSSP_1.3.0_PBE_efficiency/Zn_pbe_v1.uspp.F.UPF
     MD5 check sum: df62231357ef9e81f77b2b3087fa5675
     Pseudo is Ultrasoft, Zval = 20.0
     Generated by new atomic code, or converted to UPF format
     Using radial grid of  943 points,  6 beta functions with:
                l(1) =   0
                l(2) =   0
                l(3) =   1
                l(4) =   1
                l(5) =   2
                l(6) =   2
     Q(r) pseudized with  8 coefficients,  rinner =    1.100   1.100   1.100
                                                       1.100   1.100

     PseudoPot. # 2 for C  read from file:
     /home/ys/qepseudo/SSSP_1.3.0_PBE_efficiency/C.pbe-n-kjpaw_psl.1.0.0.UPF
     MD5 check sum: 5d2aebdfa2cae82b50a7e79e9516da0f
     Pseudo is Projector augmented-wave + core cor, Zval =  4.0
     Generated using "atomic" code by A. Dal Corso  v.5.1
     Shape of augmentation charge: PSQ
     Using radial grid of 1073 points,  4 beta functions with:
                l(1) =   0
                l(2) =   0
                l(3) =   1
                l(4) =   1
     Q(r) pseudized with 0 coefficients

     PseudoPot. # 3 for N  read from file:
     /home/ys/qepseudo/SSSP_1.3.0_PBE_efficiency/N.pbe-n-radius_5.UPF
     MD5 check sum: 16739722b17309cd8fe442a2ace49922
     Pseudo is Ultrasoft + core correction, Zval =  5.0
     Generated using "atomic" code by A. Dal Corso  v.5.1
     Using radial grid of 1085 points,  4 beta functions with:
                l(1) =   0
                l(2) =   0
                l(3) =   1
                l(4) =   1
     Q(r) pseudized with 0 coefficients

     PseudoPot. # 4 for H  read from file:
     /home/ys/qepseudo/SSSP_1.3.0_PBE_efficiency/H.pbe-rrkjus_psl.1.0.0.UPF
     MD5 check sum: f52b6d4d1c606e5624b1dc7b2218f220
     Pseudo is Ultrasoft, Zval =  1.0
     Generated using "atomic" code by A. Dal Corso  v.5.1
     Using radial grid of  929 points,  2 beta functions with:
                l(1) =   0
                l(2) =   0
     Q(r) pseudized with 0 coefficients

     atomic species   valence    mass     pseudopotential
     Zn               20.00    65.38000     Zn( 1.00)
     C                 4.00    12.01070     C ( 1.00)
     N                 5.00    14.00670     N ( 1.00)
     H                 1.00     1.00800     H ( 1.00)

     No symmetry found

                                    s                        frac. trans.

      isym =  1     identity

 cryst.   s( 1) = (     1          0          0      )
                  (     0          1          0      )
                  (     0          0          1      )

 cart.    s( 1) = (  1.0000000  0.0000000  0.0000000 )
                  (  0.0000000  1.0000000  0.0000000 )
                  (  0.0000000  0.0000000  1.0000000 )

   Cartesian axes

     site n.     atom                  positions (alat units)
         1        Zn     tau(   1) = (  -0.0970639   0.0980210   0.1082939  )
         2        Zn     tau(   2) = (  -0.2088085   0.5573710   0.1082939  )
         3        Zn     tau(   3) = (  -0.4853192   0.0035714   0.2939406  )
         4        Zn     tau(   4) = (  -0.5970639   0.4629214   0.2939406  )
         5        Zn     tau(   5) = (  -0.8581346  -0.0889204   0.4941152  )
         6        Zn     tau(   6) = (  -0.9699341   0.3704825   0.4941086  )
         7        Zn     tau(   7) = (  -1.2238216  -0.1771856   0.6884522  )
         8        Zn     tau(   8) = (  -1.3352557   0.2823443   0.6894635  )
         9        Zn     tau(   9) = (  -0.1529362   0.3276960   0.1082939  )
        10        Zn     tau(  10) = (  -0.2646808   0.7870460   0.1082939  )
        11        Zn     tau(  11) = (  -0.5411915   0.2332464   0.2939406  )
        12        Zn     tau(  12) = (  -0.6529362   0.6925964   0.2939406  )
        13        Zn     tau(  13) = (  -0.9142951   0.1406603   0.4941813  )
        14        Zn     tau(  14) = (  -1.0254924   0.6002657   0.4937924  )
        15        Zn     tau(  15) = (  -1.2800757   0.0524596   0.6889265  )
        16        Zn     tau(  16) = (  -1.3907776   0.5120344   0.6884216  )
        17        Zn     tau(  17) = (   0.4029361   0.0980210   0.1082939  )
        18        Zn     tau(  18) = (   0.2911915   0.5573710   0.1082939  )
        19        Zn     tau(  19) = (   0.0146808   0.0035714   0.2939406  )
        20        Zn     tau(  20) = (  -0.0970639   0.4629214   0.2939406  )
        21        Zn     tau(  21) = (  -0.3571279  -0.0886717   0.4907470  )
        22        Zn     tau(  22) = (  -0.4680358   0.3710853   0.4908660  )
        23        Zn     tau(  23) = (  -0.7188488  -0.1761207   0.6876765  )
        24        Zn     tau(  24) = (  -0.8307547   0.2830726   0.6870239  )
        25        Zn     tau(  25) = (   0.3470638   0.3276960   0.1082939  )
        26        Zn     tau(  26) = (   0.2353192   0.7870460   0.1082939  )
        27        Zn     tau(  27) = (  -0.0411915   0.2332464   0.2939406  )
        28        Zn     tau(  28) = (  -0.1529362   0.6925964   0.2939406  )
        29        Zn     tau(  29) = (  -0.4122249   0.1411047   0.4905416  )
        30        Zn     tau(  30) = (  -0.5246610   0.6005329   0.4908126  )
        31        Zn     tau(  31) = (  -0.7744837   0.0535749   0.6869417  )
        32        Zn     tau(  32) = (  -0.8866854   0.5128335   0.6877816  )
        33        Zn     tau(  33) = (   0.1529362   0.0372043   0.0773528  )
        34        Zn     tau(  34) = (   0.0411915   0.4965543   0.0773528  )
        35        Zn     tau(  35) = (  -0.2353192  -0.0572454   0.2629995  )
        36        Zn     tau(  36) = (  -0.3470638   0.4021046   0.2629995  )
        37        Zn     tau(  37) = (  -0.6098033  -0.1492910   0.4476837  )
        38        Zn     tau(  38) = (  -0.7220153   0.3100993   0.4469592  )
        39        Zn     tau(  39) = (  -0.9878869  -0.2419297   0.6535703  )
        40        Zn     tau(  40) = (  -1.1002936   0.2171322   0.6533530  )
        41        Zn     tau(  41) = (   0.0970639   0.2668793   0.0773528  )
        42        Zn     tau(  42) = (  -0.0146808   0.7262293   0.0773528  )
        43        Zn     tau(  43) = (  -0.2911915   0.1724296   0.2629995  )
        44        Zn     tau(  44) = (  -0.4029361   0.6317796   0.2629995  )
        45        Zn     tau(  45) = (  -0.6660805   0.0800802   0.4469998  )
        46        Zn     tau(  46) = (  -0.7775316   0.5397467   0.4475796  )
        47        Zn     tau(  47) = (  -1.0444682  -0.0124655   0.6534982  )
        48        Zn     tau(  48) = (  -1.1553690   0.4470271   0.6536081  )
        49        Zn     tau(  49) = (   0.6529362   0.0372043   0.0773528  )
        50        Zn     tau(  50) = (   0.5411915   0.4965543   0.0773528  )
        51        Zn     tau(  51) = (   0.2646808  -0.0572454   0.2629995  )
        52        Zn     tau(  52) = (   0.1529362   0.4021046   0.2629995  )
        53        Zn     tau(  53) = (  -0.1099025  -0.1493720   0.4469396  )
        54        Zn     tau(  54) = (  -0.2211707   0.3102297   0.4468374  )
        55        Zn     tau(  55) = (  -0.4828727  -0.2409446   0.6555234  )
        56        Zn     tau(  56) = (  -0.5943330   0.2184752   0.6503750  )
        57        Zn     tau(  57) = (   0.5970639   0.2668793   0.0773528  )
        58        Zn     tau(  58) = (   0.4853192   0.7262293   0.0773528  )
        59        Zn     tau(  59) = (   0.2088085   0.1724296   0.2629995  )
        60        Zn     tau(  60) = (   0.0970639   0.6317796   0.2629995  )
[...]
        65        C      tau(  65) = (  -0.5705392   0.2375904   1.4940924  )
        66        C      tau(  66) = (  -0.5782092   0.2348077   1.3655168  )
        67        C      tau(  67) = (  -0.6152078   0.3373014   1.2991697  )
        68        C      tau(  68) = (  -0.5495343   0.1282199   1.3016293  )
        69        C      tau(  69) = (  -0.5571426   0.1244169   1.1766192  )
        70        C      tau(  70) = (  -0.6231882   0.3336101   1.1741356  )
        71        C      tau(  71) = (  -0.5948117   0.2267815   1.1100746  )
        72        N      tau(  72) = (  -0.5651193   0.2391636   1.6001308  )
        73        N      tau(  73) = (  -0.5997183   0.2236973   0.9859316  )
        74        H      tau(  74) = (  -0.5990124   0.1421057   0.9431946  )
        75        H      tau(  75) = (  -0.6464089   0.2892601   0.9410658  )
        76        H      tau(  76) = (  -0.6390402   0.4201845   1.3474814  )
        77        H      tau(  77) = (  -0.5207985   0.0478984   1.3515741  )
        78        H      tau(  78) = (  -0.5334816   0.0412275   1.1283515  )
        79        H      tau(  79) = (  -0.6518856   0.4142188   1.1242782  )

   Crystallographic axes

[...]
     atom   71 type  2   force =     0.00000000    0.00000000    0.00000000
     atom   72 type  3   force =     0.00000000    0.00000000    0.00000000
     atom   73 type  3   force =     0.00000000    0.00000000    0.00000000
     atom   74 type  4   force =     0.00000000    0.00000000    0.00000000
     atom   75 type  4   force =     0.00000000    0.00000000    0.00000000
     atom   76 type  4   force =     0.00000000    0.00000000    0.00000000
     atom   77 type  4   force =     0.00000000    0.00000000    0.00000000
     atom   78 type  4   force =     0.00000000    0.00000000    0.00000000
     atom   79 type  4   force =     0.00000000    0.00000000    0.00000000
     The SCF correction term to forces
     atom    1 type  1   force =    -0.00000000    0.00000000    0.00000000
     atom    2 type  1   force =    -0.00000000   -0.00000000   -0.00000000
     atom    3 type  1   force =     0.00000000   -0.00000000    0.00000000
     atom    4 type  1   force =    -0.00000000    0.00000000    0.00000000
     atom    5 type  1   force =    -0.00012010    0.00003624    0.00001099
     atom    6 type  1   force =    -0.00003182   -0.00007275   -0.00001046
     atom    7 type  1   force =    -0.00004048    0.00005316   -0.00006650
     atom    8 type  1   force =     0.00006517   -0.00004700   -0.00000976
     atom    9 type  1   force =     0.00000000   -0.00000000   -0.00000000
     atom   10 type  1   force =    -0.00000000    0.00000000   -0.00000000
     atom   11 type  1   force =     0.00000000    0.00000000   -0.00000000
     atom   12 type  1   force =     0.00000000    0.00000000    0.00000000
     atom   13 type  1   force =    -0.00016149    0.00003987   -0.00000657
     atom   14 type  1   force =     0.00001096   -0.00007618    0.00000719
     atom   15 type  1   force =     0.00005627   -0.00005063   -0.00007133
     atom   16 type  1   force =    -0.00003557    0.00005595   -0.00000757
     atom   17 type  1   force =     0.00000000    0.00000000   -0.00000000
     atom   18 type  1   force =     0.00000000    0.00000000   -0.00000000
     atom   19 type  1   force =    -0.00000000    0.00000000    0.00000000
     atom   20 type  1   force =     0.00000000   -0.00000000   -0.00000000
     atom   21 type  1   force =     0.00013974   -0.00001197    0.00001969
     atom   22 type  1   force =     0.00004507    0.00005607    0.00003468
     atom   23 type  1   force =     0.00002744   -0.00003245    0.00002506
     atom   24 type  1   force =    -0.00007490    0.00002686   -0.00002148
     atom   25 type  1   force =    -0.00000000    0.00000000   -0.00000000
     atom   26 type  1   force =     0.00000000   -0.00000000   -0.00000000
     atom   27 type  1   force =    -0.00000000   -0.00000000    0.00000000
     atom   28 type  1   force =    -0.00000000    0.00000000   -0.00000000
     atom   29 type  1   force =     0.00018016   -0.00007362    0.00002191
     atom   30 type  1   force =     0.00000258    0.00011710    0.00003301
     atom   31 type  1   force =    -0.00006848    0.00002065    0.00001830
     atom   32 type  1   force =     0.00002315   -0.00003661   -0.00001647
     atom   33 type  1   force =    -0.00000000    0.00000000   -0.00000000
     atom   34 type  1   force =    -0.00000000   -0.00000000   -0.00000000
     atom   35 type  1   force =     0.00000000    0.00000000    0.00000000
     atom   36 type  1   force =     0.00000000   -0.00000000   -0.00000000
     atom   37 type  1   force =     0.00008049   -0.00006724    0.00005440
     atom   38 type  1   force =    -0.00011487    0.00006060    0.00004648
     atom   39 type  1   force =    -0.00007726    0.00003679   -0.00001785
     atom   40 type  1   force =    -0.00000342   -0.00005484   -0.00008394
     atom   41 type  1   force =    -0.00000000    0.00000000   -0.00000000
     atom   42 type  1   force =    -0.00000000   -0.00000000   -0.00000000
     atom   43 type  1   force =     0.00000000   -0.00000000   -0.00000000
     atom   44 type  1   force =    -0.00000000    0.00000000    0.00000000
     atom   45 type  1   force =    -0.00003931    0.00000020    0.00005143
     atom   46 type  1   force =     0.00000423   -0.00000921    0.00005125
     atom   47 type  1   force =    -0.00010461    0.00004390   -0.00007282
     atom   48 type  1   force =     0.00002461   -0.00006516   -0.00002933
     atom   49 type  1   force =     0.00000000   -0.00000000   -0.00000000
     atom   50 type  1   force =     0.00000000    0.00000000   -0.00000000
     atom   51 type  1   force =    -0.00000000   -0.00000000   -0.00000000
     atom   52 type  1   force =    -0.00000000   -0.00000000    0.00000000
     atom   53 type  1   force =    -0.00009967    0.00010359    0.00000172
     atom   54 type  1   force =     0.00010429   -0.00010253   -0.00000825
     atom   55 type  1   force =     0.00006767   -0.00000560   -0.00000806
     atom   56 type  1   force =    -0.00000627    0.00002122    0.00004062
     atom   57 type  1   force =     0.00000000   -0.00000000   -0.00000000
     atom   58 type  1   force =     0.00000000    0.00000000   -0.00000000
     atom   59 type  1   force =    -0.00000000    0.00000000    0.00000000
     atom   60 type  1   force =     0.00000000   -0.00000000   -0.00000000
[...]
     atom   65 type  2   force =     0.00000730    0.00000623    0.00003923
     atom   66 type  2   force =     0.00000478   -0.00000385   -0.00000864
     atom   67 type  2   force =     0.00000078    0.00000922   -0.00001306
     atom   68 type  2   force =     0.00000253   -0.00001175   -0.00001922
     atom   69 type  2   force =    -0.00000100    0.00000034   -0.00000710
     atom   70 type  2   force =     0.00000328   -0.00000280   -0.00001623
     atom   71 type  2   force =     0.00000263   -0.00000287    0.00000210
     atom   72 type  3   force =     0.00001015    0.00001315    0.00003584
     atom   73 type  3   force =     0.00000300    0.00000288    0.00001560
     atom   74 type  4   force =     0.00000065   -0.00000043    0.00000187
     atom   75 type  4   force =    -0.00000009    0.00000093    0.00000152
     atom   76 type  4   force =    -0.00000047    0.00000398    0.00000067
     atom   77 type  4   force =     0.00000053   -0.00000205   -0.00000129
     atom   78 type  4   force =    -0.00000060    0.00000207    0.00000100
     atom   79 type  4   force =     0.00000077   -0.00000082   -0.00000073

     Total force =     0.001526     Total SCF correction =     0.000585
     SCF correction compared to forces is large: reduce conv_thr to get better values

     Computing stress (Cartesian axis) and pressure

     negative rho (up, down):  3.849E-02 0.000E+00
          total   stress  (Ry/bohr**3)                   (kbar)     P=     -281.54
  -0.00198965  -0.00003137   0.00002252         -292.69       -4.62        3.31
  -0.00003137  -0.00191056   0.00000560           -4.62     -281.05        0.82
   0.00002252   0.00000560  -0.00184141            3.31        0.82     -270.88

     kinetic stress (kbar)  15583.78     21.44    -11.54
                               21.44  15512.39     -3.70
                              -11.54     -3.70  15539.30

     local   stress (kbar)**********   3737.19  -1519.67
                             3737.19**********   -441.61
                            -1519.67   -441.611145403.42

     nonloc. stress (kbar)  -1744.06     -8.81      2.42
                               -8.81  -1715.43      0.29
                                2.42      0.29  -1752.49

     hartree stress (kbar) 600840.62  -1588.88    616.78
                            -1588.88 606769.78    179.48
                              616.78    179.48-531509.04

     exc-cor stress (kbar)  -7583.94     -1.66      0.70
                               -1.66  -7578.30      0.20
                                0.70      0.20  -7583.64

     corecor stress (kbar)    -72.16      0.40     -0.10
                                0.40    -73.26     -0.02
                               -0.10     -0.02    -73.61

     ewald   stress (kbar) 526692.76  -2164.31    914.72
                            -2164.31 534738.36    266.20
                              914.72    266.20-620294.83

     hubbard stress (kbar)      0.00      0.00      0.00
                                0.00      0.00      0.00
                                0.00      0.00      0.00

     DFT-D   stress (kbar)      0.00      0.00      0.00
                                0.00      0.00      0.00
                                0.00      0.00      0.00

     XDM     stress (kbar)      0.00      0.00      0.00
                                0.00      0.00      0.00
                                0.00      0.00      0.00

     dft-nl  stress (kbar)      0.00      0.00      0.00
                                0.00      0.00      0.00
                                0.00      0.00      0.00

     TS-vdW  stress (kbar)      0.00      0.00      0.00
                                0.00      0.00      0.00
                                0.00      0.00      0.00

     MDB     stress (kbar)      0.00      0.00      0.00
                                0.00      0.00      0.00
                                0.00      0.00      0.00

     3D-RISM stress (kbar)      0.00      0.00      0.00
                                0.00      0.00      0.00
                                0.00      0.00      0.00

     Energy error            =      5.9E-06 Ry
     Gradient error          =      4.4E-04 Ry/Bohr

     bfgs converged in  68 scf cycles and  65 bfgs steps
     (criteria: energy <  1.0E-05 Ry, force <  5.0E-04 Ry/Bohr)

     End of BFGS Geometry Optimization

     Final energy             =  -29711.3640284934 Ry

     File ./tmp/Zn101_2x4x4_primitive_atoms32_14Avacumn_ABN_topsite_upright.bfgs deleted, as requested
Begin final coordinates

ATOMIC_POSITIONS (angstrom)
Zn              -1.0735556040        1.0841422490        1.1977635440    0   0   0
Zn              -2.3094850350        6.1646922450        1.1977635440    0   0   0
Zn              -5.3677775260        0.0395003770        3.2510723350    0   0   0
Zn              -6.6037069570        5.1200503720        3.2510723350    0   0   0
Zn              -9.4763117254       -0.9802047564        5.4732592490
Zn             -10.7114831615        4.1022189199        5.4719521244
Zn             -13.5125956811       -1.9547962616        7.6238397390
Zn             -14.7456053608        3.1264781298        7.6316180464
Zn              -1.6915203190        3.6244172470        1.1977635440    0   0   0
Zn              -2.9274497510        8.7049672430        1.1977635440    0   0   0
Zn              -5.9857422410        2.5797753750        3.2510723350    0   0   0
Zn              -7.2216716720        7.6603253700        3.2510723350    0   0   0
Zn             -10.0992702578        1.5599403315        5.4708015199
Zn             -11.3279412790        6.6420338086        5.4718364033
Zn             -14.1340645889        0.5844401021        7.6312257399
Zn             -15.3648865539        5.6663196826        7.6264851903
Zn               4.4565957630        1.0841422490        1.1977635440    0   0   0
Zn               3.2206663320        6.1646922450        1.1977635440    0   0   0
Zn               0.1623738410        0.0395003770        3.2510723350    0   0   0
Zn              -1.0735555900        5.1200503720        3.2510723350    0   0   0
Zn              -3.9419266780       -0.9796764388        5.4307493164
Zn              -5.1699259641        4.1070869056        5.4309415701
Zn              -7.9202324349       -1.9442225316        7.6232077901
Zn              -9.1660207635        3.1358024839        7.6118958866
Zn               3.8386310480        3.6244172470        1.1977635440    0   0   0
Zn               2.6027016170        8.7049672430        1.1977635440    0   0   0
Zn              -0.4555908740        2.5797753750        3.2510723350    0   0   0
Zn              -1.6915203050        7.6603253700        3.2510723350    0   0   0
Zn              -4.5511963119        1.5624820040        5.4279775458
Zn              -5.7954168834        6.6451952710        5.4312738102
Zn              -8.5427423852        0.5950460511        7.6125500937
Zn              -9.7768637923        5.6773335417        7.6235260831
Zn               1.6915203330        0.4114908770        0.8555452480    0   0   0
Zn               0.4555909020        5.4920408730        0.8555452480    0   0   0
Zn              -2.6027015890       -0.6331509950        2.9088540390    0   0   0
Zn              -3.8386310200        4.4473990010        2.9088540390    0   0   0
Zn              -6.7374529846       -1.6495440298        4.9567844010
Zn              -7.9792889505        3.4330575502        4.9493671555
Zn             -10.9059203855       -2.6713957609        7.2402187106
Zn             -12.1426713764        2.4081004963        7.2417919030
Zn               1.0735556170        2.9517658750        0.8555452480    0   0   0
Zn              -0.1623738140        8.0323158710        0.8555452480    0   0   0
Zn              -3.2206663040        1.9071240030        2.9088540390    0   0   0
Zn              -4.4565957350        6.9876739990        2.9088540390    0   0   0
Zn              -7.3601167171        0.8879968834        4.9489572803
Zn              -8.5915360673        5.9724624672        4.9560786021
Zn             -11.5271027392       -0.1314633416        7.2412084132
Zn             -12.7548487546        4.9499808449        7.2412307314
Zn               7.2216717000        0.4114908770        0.8555452480    0   0   0
Zn               5.9857422690        5.4920408730        0.8555452480    0   0   0
Zn               2.9274497780       -0.6331509950        2.9088540390    0   0   0
Zn               1.6915203470        4.4473990010        2.9088540390    0   0   0
Zn              -1.2122840295       -1.6499599806        4.9493882338
Zn              -2.4431735869        3.4326354725        4.9495644267
Zn              -5.3102794760       -2.6590849854        7.2735351463
Zn              -6.5549996567        2.4205308946        7.2057094537
Zn               6.6037069850        2.9517658750        0.8555452480    0   0   0
Zn               5.3677775540        8.0323158710        0.8555452480    0   0   0
Zn               2.3094850630        1.9071240030        2.9088540390    0   0   0
Zn               1.0735556320        6.9876739990        2.9088540390    0   0   0
[...]
C               -6.3029130668        2.6334756787       16.5320093294
C               -6.3919687759        2.5980447714       15.1105097418
C               -6.7992662944        3.7329481699       14.3776056475
C               -6.0783383723        1.4176973364       14.4046838298
C               -6.1700508007        1.3744431003       13.0224291487
C               -6.8909853467        3.6905016708       12.9948492460
C               -6.5800224252        2.5084884663       12.2861728961
N               -6.2358165314        2.6589778294       17.7042744441
N               -6.6313724800        2.4756768702       10.9121998465
H               -6.6371476551        1.5698792901       10.4446552710
H               -7.1569501557        3.1999519846       10.4236939270
H               -7.0460575033        4.6557215043       14.9106778313
H               -5.7617899659        0.5293491196       14.9583631473
H               -5.9252148061        0.4486657110       12.4907856863
H               -7.2098779063        4.5812522710       12.4430568598
End final coordinates

     Writing all to output data dir ./tmp/Zn101_2x4x4_primitive_atoms32_14Avacumn_ABN_topsite_upright.save/ :
     XML data file, charge density, pseudopotentials, collected wavefunctions

     General routines

     Parallel routines

     PAW routines

   This run was terminated on:  16: 4:21  25Mar2025

   JOB DONE.
Note: The following floating-point exceptions are signalling: IEEE_DENORMAL
Note: The following floating-point exceptions are signalling: IEEE_DENORMAL
Note: The following floating-point exceptions are signalling: IEEE_DENORMAL
Note: The following floating-point exceptions are signalling: IEEE_DENORMAL
Note: The following floating-point exceptions are signalling: IEEE_DENORMAL
Note: The following floating-point exceptions are signalling: IEEE_DENORMAL
Note: The following floating-point exceptions are signalling: IEEE_DENORMAL
Note: The following floating-point exceptions are signalling: IEEE_DENORMAL
Note: The following floating-point exceptions are signalling: IEEE_DENORMAL
Note: The following floating-point exceptions are signalling: IEEE_DENORMAL
Note: The following floating-point exceptions are signalling: IEEE_DENORMAL