     Program PWSCF v.7.3.1 starts on 19Mar2025 at 15: 7:47

     Waiting for input...
     Reading input from standard input
Warning: card &CELL ignored
Warning: card   CELL_DOFREE = 'ALL' ignored
Warning: card / ignored

     Current dimensions of program PWSCF are:
     Max number of different atomic species (ntypx) = 10
     Max number of k-points (npk) =  40000
     Max angular momentum in pseudopotentials (lmaxx) =  4

     R & G space division:  proc/nbgrp/npool/nimage =      30
     Subspace diagonalization in iterative solution of the eigenvalue problem:
     one sub-group per band group will be used

     Using Slab Decomposition

     bravais-lattice index     =            0
     lattice parameter (alat)  =      20.9009  a.u.
     unit-cell volume          =   16846.7507 (a.u.)^3
     number of atoms/cell      =           64
     number of atomic types    =            1
     number of electrons       =      1280.00
     number of Kohn-Sham states=          768
     kinetic-energy cutoff     =      50.0000  Ry
     charge density cutoff     =     200.0000  Ry
     scf convergence threshold =      7.3E-07
     mixing beta               =       0.7000
     number of iterations used =            8  plain     mixing
     Exchange-correlation= SLA  PW   PBE  PBE
                           (   1   4   3   4   0   0   0)

     celldm(1)=  20.900943  celldm(2)=   0.000000  celldm(3)=   0.000000
     celldm(4)=   0.000000  celldm(5)=   0.000000  celldm(6)=   0.000000

     crystal axes: (cart. coord. in units of alat)
               a(1) = (   1.000000   0.000000   0.000000 )
               a(2) = (  -0.223489   0.918700   0.000000 )
               a(3) = (  -4.200249  -1.021781   2.008375 )

     reciprocal axes: (cart. coord. in units 2 pi/alat)
               b(1) = (  1.000000  0.243267  2.215131 )
               b(2) = ( -0.000000  1.088495  0.553783 )
               b(3) = (  0.000000 -0.000000  0.497915 )

     PseudoPot. # 1 for Zn read from file:
     /home/ys/qepseudo/SSSP_1.3.0_PBE_efficiency/Zn_pbe_v1.uspp.F.UPF
     MD5 check sum: df62231357ef9e81f77b2b3087fa5675
     Pseudo is Ultrasoft, Zval = 20.0
     Generated by new atomic code, or converted to UPF format
     Using radial grid of  943 points,  6 beta functions with:
                l(1) =   0
                l(2) =   0
                l(3) =   1
                l(4) =   1
                l(5) =   2
                l(6) =   2
     Q(r) pseudized with  8 coefficients,  rinner =    1.100   1.100   1.100
                                                       1.100   1.100

     atomic species   valence    mass     pseudopotential
     Zn               20.00    65.38000     Zn( 1.00)

     No symmetry found

                                    s                        frac. trans.

      isym =  1     identity

 cryst.   s( 1) = (     1          0          0      )
                  (     0          1          0      )
                  (     0          0          1      )

 cart.    s( 1) = (  1.0000000  0.0000000  0.0000000 )
                  (  0.0000000  1.0000000  0.0000000 )
                  (  0.0000000  0.0000000  1.0000000 )

   Cartesian axes

     site n.     atom                  positions (alat units)
         1        Zn     tau(   1) = (  -0.0970639   0.0980210   0.1082939  )
         2        Zn     tau(   2) = (  -0.2088085   0.5573710   0.1082939  )
         3        Zn     tau(   3) = (  -0.4853192   0.0035714   0.2939406  )
         4        Zn     tau(   4) = (  -0.5970639   0.4629214   0.2939406  )
         5        Zn     tau(   5) = (  -0.8778168  -0.0917986   0.5024637  )
         6        Zn     tau(   6) = (  -0.9895264   0.3675466   0.5024137  )
         7        Zn     tau(   7) = (  -1.2406027  -0.1798552   0.6910406  )
         8        Zn     tau(   8) = (  -1.3522669   0.2794611   0.6910199  )
         9        Zn     tau(   9) = (  -0.1529362   0.3276960   0.1082939  )
        10        Zn     tau(  10) = (  -0.2646808   0.7870460   0.1082939  )
        11        Zn     tau(  11) = (  -0.5411915   0.2332464   0.2939406  )
        12        Zn     tau(  12) = (  -0.6529362   0.6925964   0.2939406  )
        13        Zn     tau(  13) = (  -0.9336469   0.1378867   0.5024624  )
        14        Zn     tau(  14) = (  -1.0454415   0.5972109   0.5024147  )
        15        Zn     tau(  15) = (  -1.2963824   0.0498229   0.6909782  )
        16        Zn     tau(  16) = (  -1.4082339   0.5091311   0.6910822  )
        17        Zn     tau(  17) = (   0.4029361   0.0980210   0.1082939  )
        18        Zn     tau(  18) = (   0.2911915   0.5573710   0.1082939  )
        19        Zn     tau(  19) = (   0.0146808   0.0035714   0.2939406  )
        20        Zn     tau(  20) = (  -0.0970639   0.4629214   0.2939406  )
        21        Zn     tau(  21) = (  -0.3778584  -0.0918024   0.5025944  )
        22        Zn     tau(  22) = (  -0.4896087   0.3675192   0.5025659  )
        23        Zn     tau(  23) = (  -0.7409254  -0.1799822   0.6911262  )
        24        Zn     tau(  24) = (  -0.8527216   0.2793980   0.6911899  )
        25        Zn     tau(  25) = (   0.3470638   0.3276960   0.1082939  )
        26        Zn     tau(  26) = (   0.2353192   0.7870460   0.1082939  )
        27        Zn     tau(  27) = (  -0.0411915   0.2332464   0.2939406  )
        28        Zn     tau(  28) = (  -0.1529362   0.6925964   0.2939406  )
        29        Zn     tau(  29) = (  -0.4337391   0.1378295   0.5025928  )
        30        Zn     tau(  30) = (  -0.5454721   0.5972380   0.5025679  )
        31        Zn     tau(  31) = (  -0.7968526   0.0496773   0.6911857  )
        32        Zn     tau(  32) = (  -0.9085381   0.5090884   0.6911313  )
        33        Zn     tau(  33) = (   0.1529362   0.0372043   0.0773528  )
        34        Zn     tau(  34) = (   0.0411915   0.4965543   0.0773528  )
        35        Zn     tau(  35) = (  -0.2353192  -0.0572454   0.2629995  )
        36        Zn     tau(  36) = (  -0.3470638   0.4021046   0.2629995  )
        37        Zn     tau(  37) = (  -0.6280951  -0.1529585   0.4553783  )
        38        Zn     tau(  38) = (  -0.7398296   0.3064181   0.4553934  )
        39        Zn     tau(  39) = (  -1.0052352  -0.2442836   0.6603749  )
        40        Zn     tau(  40) = (  -1.1168712   0.2151081   0.6603799  )
        41        Zn     tau(  41) = (   0.0970639   0.2668793   0.0773528  )
        42        Zn     tau(  42) = (  -0.0146808   0.7262293   0.0773528  )
        43        Zn     tau(  43) = (  -0.2911915   0.1724296   0.2629995  )
        44        Zn     tau(  44) = (  -0.4029361   0.6317796   0.2629995  )
        45        Zn     tau(  45) = (  -0.6839755   0.0767104   0.4553893  )
        46        Zn     tau(  46) = (  -0.7956904   0.5360988   0.4553814  )
        47        Zn     tau(  47) = (  -1.0610488  -0.0145857   0.6603978  )
        48        Zn     tau(  48) = (  -1.1728037   0.4447627   0.6603571  )
        49        Zn     tau(  49) = (   0.6529362   0.0372043   0.0773528  )
        50        Zn     tau(  50) = (   0.5411915   0.4965543   0.0773528  )
        51        Zn     tau(  51) = (   0.2646808  -0.0572454   0.2629995  )
        52        Zn     tau(  52) = (   0.1529362   0.4021046   0.2629995  )
        53        Zn     tau(  53) = (  -0.1280445  -0.1528982   0.4553743  )
        54        Zn     tau(  54) = (  -0.2397657   0.3063891   0.4553297  )
        55        Zn     tau(  55) = (  -0.5055002  -0.2443167   0.6603316  )
        56        Zn     tau(  56) = (  -0.6173111   0.2149623   0.6603566  )
        57        Zn     tau(  57) = (   0.5970639   0.2668793   0.0773528  )
        58        Zn     tau(  58) = (   0.4853192   0.7262293   0.0773528  )
        59        Zn     tau(  59) = (   0.2088085   0.1724296   0.2629995  )
        60        Zn     tau(  60) = (   0.0970639   0.6317796   0.2629995  )
        61        Zn     tau(  61) = (  -0.1838756   0.0767547   0.4553744  )
        62        Zn     tau(  62) = (  -0.2956772   0.5360837   0.4553280  )
        63        Zn     tau(  63) = (  -0.5614277  -0.0146977   0.6603020  )
        64        Zn     tau(  64) = (  -0.6731294   0.4446946   0.6603871  )

   Crystallographic axes

     site n.     atom                  positions (cryst. coord.)
         1        Zn     tau(   1) = (  0.1666667  0.1666667  0.0539212  )
         2        Zn     tau(   2) = (  0.1666667  0.6666667  0.0539212  )
         3        Zn     tau(   3) = (  0.1666667  0.1666667  0.1463574  )
         4        Zn     tau(   4) = (  0.1666667  0.6666667  0.1463574  )
         5        Zn     tau(   5) = (  0.2128747  0.1783335  0.2501842  )
         6        Zn     tau(   6) = (  0.2127978  0.6783005  0.2501593  )
         7        Zn     tau(   7) = (  0.2463902  0.1869149  0.3440795  )
         8        Zn     tau(   8) = (  0.2464166  0.6868668  0.3440692  )
         9        Zn     tau(   9) = (  0.1666667  0.4166667  0.0539212  )
        10        Zn     tau(  10) = (  0.1666667  0.9166667  0.0539212  )
        11        Zn     tau(  11) = (  0.1666667  0.4166667  0.1463574  )
        12        Zn     tau(  12) = (  0.1666667  0.9166667  0.1463574  )
        13        Zn     tau(  13) = (  0.2129167  0.4283440  0.2501836  )
        14        Zn     tau(  14) = (  0.2127547  0.9282895  0.2501598  )
        15        Zn     tau(  15) = (  0.2463452  0.4368838  0.3440484  )
        16        Zn     tau(  16) = (  0.2464587  0.9368959  0.3441002  )
        17        Zn     tau(  17) = (  0.6666667  0.1666667  0.0539212  )
        18        Zn     tau(  18) = (  0.6666667  0.6666667  0.0539212  )
        19        Zn     tau(  19) = (  0.6666667  0.1666667  0.1463574  )
        20        Zn     tau(  20) = (  0.6666667  0.6666667  0.1463574  )
        21        Zn     tau(  21) = (  0.7131217  0.1784017  0.2502493  )
        22        Zn     tau(  22) = (  0.7130461  0.6783550  0.2502351  )
        23        Zn     tau(  23) = (  0.7462263  0.1868242  0.3441221  )
        24        Zn     tau(  24) = (  0.7463231  0.6868923  0.3441538  )
        25        Zn     tau(  25) = (  0.6666667  0.4166667  0.0539212  )
        26        Zn     tau(  26) = (  0.6666667  0.9166667  0.0539212  )
        27        Zn     tau(  27) = (  0.6666667  0.4166667  0.1463574  )
        28        Zn     tau(  28) = (  0.6666667  0.9166667  0.1463574  )
        29        Zn     tau(  29) = (  0.7130994  0.4283539  0.2502485  )
        30        Zn     tau(  30) = (  0.7130701  0.9284039  0.2502361  )
        31        Zn     tau(  31) = (  0.7462994  0.4368403  0.3441517  )
        32        Zn     tau(  32) = (  0.7462528  0.9368766  0.3441246  )
        33        Zn     tau(  33) = (  0.3333333  0.0833333  0.0385151  )
        34        Zn     tau(  34) = (  0.3333333  0.5833333  0.0385151  )
        35        Zn     tau(  35) = (  0.3333333  0.0833333  0.1309514  )
        36        Zn     tau(  36) = (  0.3333333  0.5833333  0.1309514  )
        37        Zn     tau(  37) = (  0.3434179  0.0856861  0.2267397  )
        38        Zn     tau(  38) = (  0.3434679  0.5857235  0.2267472  )
[...]
     atom   26 type  1   force =     0.00000000    0.00000000    0.00000000
     atom   27 type  1   force =     0.00000000    0.00000000    0.00000000
     atom   28 type  1   force =     0.00000000    0.00000000    0.00000000
     atom   29 type  1   force =     0.00000000    0.00000000    0.00000000
     atom   30 type  1   force =     0.00000000    0.00000000    0.00000000
     atom   31 type  1   force =     0.00000000    0.00000000    0.00000000
     atom   32 type  1   force =     0.00000000    0.00000000    0.00000000
     atom   33 type  1   force =     0.00000000    0.00000000    0.00000000
     atom   34 type  1   force =     0.00000000    0.00000000    0.00000000
     atom   35 type  1   force =     0.00000000    0.00000000    0.00000000
     atom   36 type  1   force =     0.00000000    0.00000000    0.00000000
     atom   37 type  1   force =     0.00000000    0.00000000    0.00000000
     atom   38 type  1   force =     0.00000000    0.00000000    0.00000000
     atom   39 type  1   force =     0.00000000    0.00000000    0.00000000
     atom   40 type  1   force =     0.00000000    0.00000000    0.00000000
     atom   41 type  1   force =     0.00000000    0.00000000    0.00000000
     atom   42 type  1   force =     0.00000000    0.00000000    0.00000000
     atom   43 type  1   force =     0.00000000    0.00000000    0.00000000
     atom   44 type  1   force =     0.00000000    0.00000000    0.00000000
     atom   45 type  1   force =     0.00000000    0.00000000    0.00000000
     atom   46 type  1   force =     0.00000000    0.00000000    0.00000000
     atom   47 type  1   force =     0.00000000    0.00000000    0.00000000
     atom   48 type  1   force =     0.00000000    0.00000000    0.00000000
     atom   49 type  1   force =     0.00000000    0.00000000    0.00000000
     atom   50 type  1   force =     0.00000000    0.00000000    0.00000000
     atom   51 type  1   force =     0.00000000    0.00000000    0.00000000
     atom   52 type  1   force =     0.00000000    0.00000000    0.00000000
     atom   53 type  1   force =     0.00000000    0.00000000    0.00000000
     atom   54 type  1   force =     0.00000000    0.00000000    0.00000000
     atom   55 type  1   force =     0.00000000    0.00000000    0.00000000
     atom   56 type  1   force =     0.00000000    0.00000000    0.00000000
     atom   57 type  1   force =     0.00000000    0.00000000    0.00000000
     atom   58 type  1   force =     0.00000000    0.00000000    0.00000000
     atom   59 type  1   force =     0.00000000    0.00000000    0.00000000
     atom   60 type  1   force =     0.00000000    0.00000000    0.00000000
     atom   61 type  1   force =     0.00000000    0.00000000    0.00000000
     atom   62 type  1   force =     0.00000000    0.00000000    0.00000000
     atom   63 type  1   force =     0.00000000    0.00000000    0.00000000
     atom   64 type  1   force =     0.00000000    0.00000000    0.00000000
     The Hubbard contrib.    to forces
     atom    1 type  1   force =     0.00000000    0.00000000    0.00000000
     atom    2 type  1   force =     0.00000000    0.00000000    0.00000000
     atom    3 type  1   force =     0.00000000    0.00000000    0.00000000
     atom    4 type  1   force =     0.00000000    0.00000000    0.00000000
     atom    5 type  1   force =     0.00000000    0.00000000    0.00000000
     atom    6 type  1   force =     0.00000000    0.00000000    0.00000000
     atom    7 type  1   force =     0.00000000    0.00000000    0.00000000
     atom    8 type  1   force =     0.00000000    0.00000000    0.00000000
     atom    9 type  1   force =     0.00000000    0.00000000    0.00000000
     atom   10 type  1   force =     0.00000000    0.00000000    0.00000000
     atom   11 type  1   force =     0.00000000    0.00000000    0.00000000
     atom   12 type  1   force =     0.00000000    0.00000000    0.00000000
     atom   13 type  1   force =     0.00000000    0.00000000    0.00000000
     atom   14 type  1   force =     0.00000000    0.00000000    0.00000000
     atom   15 type  1   force =     0.00000000    0.00000000    0.00000000
     atom   16 type  1   force =     0.00000000    0.00000000    0.00000000
     atom   17 type  1   force =     0.00000000    0.00000000    0.00000000
     atom   18 type  1   force =     0.00000000    0.00000000    0.00000000
     atom   19 type  1   force =     0.00000000    0.00000000    0.00000000
     atom   20 type  1   force =     0.00000000    0.00000000    0.00000000
     atom   21 type  1   force =     0.00000000    0.00000000    0.00000000
     atom   22 type  1   force =     0.00000000    0.00000000    0.00000000
     atom   23 type  1   force =     0.00000000    0.00000000    0.00000000
     atom   24 type  1   force =     0.00000000    0.00000000    0.00000000
     atom   25 type  1   force =     0.00000000    0.00000000    0.00000000
     atom   26 type  1   force =     0.00000000    0.00000000    0.00000000
     atom   27 type  1   force =     0.00000000    0.00000000    0.00000000
     atom   28 type  1   force =     0.00000000    0.00000000    0.00000000
     atom   29 type  1   force =     0.00000000    0.00000000    0.00000000
     atom   30 type  1   force =     0.00000000    0.00000000    0.00000000
     atom   31 type  1   force =     0.00000000    0.00000000    0.00000000
     atom   32 type  1   force =     0.00000000    0.00000000    0.00000000
     atom   33 type  1   force =     0.00000000    0.00000000    0.00000000
     atom   34 type  1   force =     0.00000000    0.00000000    0.00000000
     atom   35 type  1   force =     0.00000000    0.00000000    0.00000000
     atom   36 type  1   force =     0.00000000    0.00000000    0.00000000
     atom   37 type  1   force =     0.00000000    0.00000000    0.00000000
     atom   38 type  1   force =     0.00000000    0.00000000    0.00000000
     atom   39 type  1   force =     0.00000000    0.00000000    0.00000000
     atom   40 type  1   force =     0.00000000    0.00000000    0.00000000
     atom   41 type  1   force =     0.00000000    0.00000000    0.00000000
     atom   42 type  1   force =     0.00000000    0.00000000    0.00000000
     atom   43 type  1   force =     0.00000000    0.00000000    0.00000000
     atom   44 type  1   force =     0.00000000    0.00000000    0.00000000
     atom   45 type  1   force =     0.00000000    0.00000000    0.00000000
     atom   46 type  1   force =     0.00000000    0.00000000    0.00000000
     atom   47 type  1   force =     0.00000000    0.00000000    0.00000000
     atom   48 type  1   force =     0.00000000    0.00000000    0.00000000
     atom   49 type  1   force =     0.00000000    0.00000000    0.00000000
     atom   50 type  1   force =     0.00000000    0.00000000    0.00000000
     atom   51 type  1   force =     0.00000000    0.00000000    0.00000000
     atom   52 type  1   force =     0.00000000    0.00000000    0.00000000
     atom   53 type  1   force =     0.00000000    0.00000000    0.00000000
     atom   54 type  1   force =     0.00000000    0.00000000    0.00000000
     atom   55 type  1   force =     0.00000000    0.00000000    0.00000000
     atom   56 type  1   force =     0.00000000    0.00000000    0.00000000
     atom   57 type  1   force =     0.00000000    0.00000000    0.00000000
     atom   58 type  1   force =     0.00000000    0.00000000    0.00000000
     atom   59 type  1   force =     0.00000000    0.00000000    0.00000000
     atom   60 type  1   force =     0.00000000    0.00000000    0.00000000
     atom   61 type  1   force =     0.00000000    0.00000000    0.00000000
     atom   62 type  1   force =     0.00000000    0.00000000    0.00000000
     atom   63 type  1   force =     0.00000000    0.00000000    0.00000000
     atom   64 type  1   force =     0.00000000    0.00000000    0.00000000
     The SCF correction term to forces
     atom    1 type  1   force =    -0.00004571    0.00004211   -0.00004007
     atom    2 type  1   force =     0.00008758   -0.00002977   -0.00006866
     atom    3 type  1   force =    -0.00036758   -0.00010852   -0.00057243
     atom    4 type  1   force =    -0.00037470   -0.00007308   -0.00051895
     atom    5 type  1   force =    -0.00016211    0.00008313   -0.00019622
     atom    6 type  1   force =    -0.00006125   -0.00013836   -0.00028267
     atom    7 type  1   force =     0.00042082    0.00011811    0.00025246
     atom    8 type  1   force =     0.00032151    0.00005838    0.00030213
     atom    9 type  1   force =     0.00001048   -0.00005154   -0.00007792
     atom   10 type  1   force =     0.00003103    0.00006341   -0.00003172
     atom   11 type  1   force =    -0.00033437   -0.00015999   -0.00053461
     atom   12 type  1   force =    -0.00040443   -0.00002375   -0.00056708
     atom   13 type  1   force =    -0.00008825   -0.00016608   -0.00018878
     atom   14 type  1   force =    -0.00013666    0.00011391   -0.00029201
     atom   15 type  1   force =     0.00042493    0.00003360    0.00026946
     atom   16 type  1   force =     0.00032001    0.00014464    0.00028524
     atom   17 type  1   force =     0.00011047   -0.00005999   -0.00020127
     atom   18 type  1   force =    -0.00001163    0.00008519   -0.00020801
     atom   19 type  1   force =    -0.00022211   -0.00004063   -0.00026666
     atom   20 type  1   force =    -0.00020878   -0.00006506   -0.00043326
     atom   21 type  1   force =    -0.00022821   -0.00005515   -0.00050613
     atom   22 type  1   force =    -0.00033148   -0.00007344   -0.00045740
     atom   23 type  1   force =    -0.00029245    0.00010663    0.00003109
     atom   24 type  1   force =    -0.00016266   -0.00021661    0.00003775
     atom   25 type  1   force =     0.00006260   -0.00000563   -0.00021479
     atom   26 type  1   force =     0.00003645    0.00002643   -0.00019534
     atom   27 type  1   force =    -0.00023959   -0.00013073   -0.00038199
     atom   28 type  1   force =    -0.00019012    0.00002147   -0.00031959
     atom   29 type  1   force =    -0.00031042   -0.00010500   -0.00051070
     atom   30 type  1   force =    -0.00024294   -0.00003384   -0.00045297
     atom   31 type  1   force =    -0.00026734   -0.00005109   -0.00000627
     atom   32 type  1   force =    -0.00018052   -0.00006064    0.00007362
     atom   33 type  1   force =    -0.00026253   -0.00009356   -0.00013653
     atom   34 type  1   force =    -0.00028345   -0.00003651   -0.00016855
     atom   35 type  1   force =     0.00047666    0.00018184   -0.00064241
     atom   36 type  1   force =     0.00051561    0.00005719   -0.00069333
     atom   37 type  1   force =    -0.00026892    0.00002958   -0.00038298
     atom   38 type  1   force =    -0.00022057   -0.00014378   -0.00027661
     atom   39 type  1   force =     0.00038558    0.00027549   -0.00006859
     atom   40 type  1   force =     0.00051321   -0.00005926   -0.00004958
     atom   41 type  1   force =    -0.00034242   -0.00005780   -0.00015827
     atom   42 type  1   force =    -0.00020121   -0.00007084   -0.00014616
     atom   43 type  1   force =     0.00050979    0.00006800   -0.00072832
     atom   44 type  1   force =     0.00048195    0.00017176   -0.00060793
     atom   45 type  1   force =    -0.00029833   -0.00008356   -0.00027673
     atom   46 type  1   force =    -0.00018518   -0.00003545   -0.00038308
     atom   47 type  1   force =     0.00051986    0.00008812   -0.00010098
     atom   48 type  1   force =     0.00038166    0.00013010   -0.00001873
     atom   49 type  1   force =     0.00009823    0.00005818   -0.00037554
     atom   50 type  1   force =     0.00010849   -0.00000635   -0.00040391
     atom   51 type  1   force =     0.00000299   -0.00002099   -0.00015669
     atom   52 type  1   force =    -0.00005506    0.00000603   -0.00021471
     atom   53 type  1   force =     0.00081799    0.00027377   -0.00048699
     atom   54 type  1   force =     0.00076966    0.00011634   -0.00060768
     atom   55 type  1   force =    -0.00051569   -0.00009583    0.00000750
     atom   56 type  1   force =    -0.00062392   -0.00017966    0.00000217
     atom   57 type  1   force =     0.00017046   -0.00006383   -0.00039385
     atom   58 type  1   force =     0.00003466    0.00011596   -0.00038429
     atom   59 type  1   force =    -0.00004790   -0.00007636   -0.00012478
     atom   60 type  1   force =    -0.00000468    0.00006553   -0.00024564
     atom   61 type  1   force =     0.00084739    0.00011698   -0.00055554
     atom   62 type  1   force =     0.00074077    0.00027162   -0.00054343
     atom   63 type  1   force =    -0.00063313   -0.00008393   -0.00000151
     atom   64 type  1   force =    -0.00050457   -0.00019071    0.00000946

     Total force =     0.103711     Total SCF correction =     0.004083

     Computing stress (Cartesian axis) and pressure

          total   stress  (Ry/bohr**3)                   (kbar)     P=       -7.50
  -0.00012495  -0.00002359   0.00002403          -18.38       -3.47        3.53
  -0.00002359  -0.00005942   0.00000633           -3.47       -8.74        0.93
   0.00002403   0.00000633   0.00003145            3.53        0.93        4.63

     kinetic stress (kbar)  14990.54      6.66     -6.13
                                6.66  14960.15     -1.42
                               -6.13     -1.42  15016.24

     local   stress (kbar)**********   3424.02  -2315.94
                             3424.02**********   -558.82
                            -2315.94   -558.821207988.40

     nonloc. stress (kbar)  -1611.65     -7.18      4.37
                               -7.18  -1584.44      1.19
                                4.37      1.19  -1619.86

     hartree stress (kbar) 630474.79  -1471.17    970.73
                            -1471.17 636163.78    234.27
                              970.73    234.27-562336.37

     exc-cor stress (kbar)  -7547.35     -0.94      0.67
                               -0.94  -7543.75      0.16
                                0.67      0.16  -7550.60

     corecor stress (kbar)      0.00      0.00      0.00
                                0.00      0.00      0.00
                                0.00      0.00      0.00

     ewald   stress (kbar) 557232.83  -1954.86   1349.83
                            -1954.86 564795.07    325.54
                             1349.83    325.54-651493.18

     hubbard stress (kbar)      0.00      0.00      0.00
                                0.00      0.00      0.00
                                0.00      0.00      0.00

     DFT-D   stress (kbar)      0.00      0.00      0.00
                                0.00      0.00      0.00
                                0.00      0.00      0.00

     XDM     stress (kbar)      0.00      0.00      0.00
                                0.00      0.00      0.00
                                0.00      0.00      0.00

     dft-nl  stress (kbar)      0.00      0.00      0.00
                                0.00      0.00      0.00
                                0.00      0.00      0.00

     TS-vdW  stress (kbar)      0.00      0.00      0.00
                                0.00      0.00      0.00
                                0.00      0.00      0.00

     MDB     stress (kbar)      0.00      0.00      0.00
                                0.00      0.00      0.00
                                0.00      0.00      0.00

     3D-RISM stress (kbar)      0.00      0.00      0.00
                                0.00      0.00      0.00
                                0.00      0.00      0.00

     Writing all to output data dir ./tmp/Zn002_2x2x4_scf.save/ :
     XML data file, charge density, pseudopotentials, collected wavefunctions

     General routines

     Parallel routines

   This run was terminated on:  17:55:55  19Mar2025

   JOB DONE.
Note: The following floating-point exceptions are signalling: IEEE_DENORMAL
Note: The following floating-point exceptions are signalling: IEEE_DENORMAL
Note: The following floating-point exceptions are signalling: IEEE_DENORMAL
Note: The following floating-point exceptions are signalling: IEEE_DENORMAL
Note: The following floating-point exceptions are signalling: IEEE_DENORMAL
Note: The following floating-point exceptions are signalling: IEEE_DENORMAL
Note: The following floating-point exceptions are signalling: IEEE_DENORMAL
Note: The following floating-point exceptions are signalling: IEEE_DENORMAL
Note: The following floating-point exceptions are signalling: IEEE_DENORMAL
Note: The following floating-point exceptions are signalling: IEEE_DENORMAL
Note: The following floating-point exceptions are signalling: IEEE_DENORMAL
Note: The following floating-point exceptions are signalling: IEEE_DENORMAL