     Program PWSCF v.7.3.1 starts on 28Mar2025 at 16: 6:34

     Waiting for input...
     Reading input from standard input
Warning: card &CELL ignored
Warning: card   CELL_DOFREE = 'ALL' ignored
Warning: card / ignored

     Current dimensions of program PWSCF are:
     Max number of different atomic species (ntypx) = 10
     Max number of k-points (npk) =  40000
     Max angular momentum in pseudopotentials (lmaxx) =  4

     R & G space division:  proc/nbgrp/npool/nimage =      33
     Subspace diagonalization in iterative solution of the eigenvalue problem:
     one sub-group per band group will be used

     Using Slab Decomposition

     bravais-lattice index     =            0
     lattice parameter (alat)  =      18.4179  a.u.
     unit-cell volume          =   15858.2170 (a.u.)^3
     number of atoms/cell      =           48
     number of atomic types    =            1
     number of electrons       =       960.00
     number of Kohn-Sham states=          576
     kinetic-energy cutoff     =      40.0000  Ry
     charge density cutoff     =     280.0000  Ry
     scf convergence threshold =      1.0E-06
     mixing beta               =       0.4000
     number of iterations used =            8  plain     mixing
     energy convergence thresh.=      1.0E-05
     force convergence thresh. =      5.0E-04
     Exchange-correlation= SLA  PW   PBE  PBE
                           (   1   4   3   4   0   0   0)
     nstep                     =          100

     celldm(1)=  18.417879  celldm(2)=   0.000000  celldm(3)=   0.000000
     celldm(4)=   0.000000  celldm(5)=   0.000000  celldm(6)=   0.000000

     crystal axes: (cart. coord. in units of alat)
               a(1) = (   1.000000   0.000000   0.000000 )
               a(2) = (   0.000000   1.072963   0.000000 )
               a(3) = (   0.000000  -1.365810   2.365652 )

     reciprocal axes: (cart. coord. in units 2 pi/alat)
               b(1) = (  1.000000  0.000000 -0.000000 )
               b(2) = ( -0.000000  0.931999  0.538090 )
               b(3) = (  0.000000  0.000000  0.422716 )

     PseudoPot. # 1 for Zn read from file:
     /home/ys/qepseudo/SSSP_1.3.0_PBE_efficiency/Zn_pbe_v1.uspp.F.UPF
     MD5 check sum: df62231357ef9e81f77b2b3087fa5675
     Pseudo is Ultrasoft, Zval = 20.0
     Generated by new atomic code, or converted to UPF format
     Using radial grid of  943 points,  6 beta functions with:
                l(1) =   0
                l(2) =   0
                l(3) =   1
                l(4) =   1
                l(5) =   2
                l(6) =   2
     Q(r) pseudized with  8 coefficients,  rinner =    1.100   1.100   1.100
                                                       1.100   1.100

     atomic species   valence    mass     pseudopotential
     Zn               20.00    65.38000     Zn( 1.00)

     No symmetry found

                                    s                        frac. trans.

      isym =  1     identity

 cryst.   s( 1) = (     1          0          0      )
                  (     0          1          0      )
                  (     0          0          1      )

 cart.    s( 1) = (  1.0000000  0.0000000  0.0000000 )
                  (  0.0000000  1.0000000 -0.0000000 )
                  (  0.0000000  0.0000000  1.0000000 )

   Cartesian axes

     site n.     atom                  positions (alat units)
         1        Zn     tau(   1) = (   0.1250000   0.1341203   0.0774344  )
         2        Zn     tau(   2) = (   0.1250000   0.6706017   0.0774344  )
         3        Zn     tau(   3) = (   0.1250345  -0.0000312   0.3643370  )
         4        Zn     tau(   4) = (   0.1250365   0.5365169   0.3642819  )
         5        Zn     tau(   5) = (   0.1250328  -0.1341454   0.6274337  )
         6        Zn     tau(   6) = (   0.1250292   0.4023904   0.6274812  )
         7        Zn     tau(   7) = (   0.1250000   0.4023610   0.0774344  )
         8        Zn     tau(   8) = (   0.1250000   0.9388424   0.0774344  )
         9        Zn     tau(   9) = (   0.1250305   0.2682173   0.3643654  )
        10        Zn     tau(  10) = (   0.1250381   0.8047498   0.3642617  )
        11        Zn     tau(  11) = (   0.1250274   0.1341034   0.6275139  )
        12        Zn     tau(  12) = (   0.1250345   0.6706190   0.6274035  )
        13        Zn     tau(  13) = (   0.6250000   0.1341203   0.0774344  )
        14        Zn     tau(  14) = (   0.6250000   0.6706017   0.0774344  )
        15        Zn     tau(  15) = (   0.6249716  -0.0000247   0.3640919  )
        16        Zn     tau(  16) = (   0.6249698   0.5365108   0.3640946  )
        17        Zn     tau(  17) = (   0.6249716  -0.1341591   0.6274598  )
        18        Zn     tau(  18) = (   0.6249723   0.4024038   0.6275344  )
        19        Zn     tau(  19) = (   0.6250000   0.4023610   0.0774344  )
        20        Zn     tau(  20) = (   0.6250000   0.9388424   0.0774344  )
        21        Zn     tau(  21) = (   0.6249758   0.2682617   0.3641690  )
        22        Zn     tau(  22) = (   0.6249694   0.8047052   0.3640230  )
        23        Zn     tau(  23) = (   0.6249745   0.1341146   0.6275544  )
        24        Zn     tau(  24) = (   0.6249693   0.6706074   0.6274400  )
        25        Zn     tau(  25) = (   0.3750000  -0.0000000   0.1548688  )
        26        Zn     tau(  26) = (   0.3750000   0.5364814   0.1548688  )
        27        Zn     tau(  27) = (   0.3749281  -0.1341537   0.3920895  )
        28        Zn     tau(  28) = (   0.3749194   0.4023971   0.3920834  )
        29        Zn     tau(  29) = (   0.3748208  -0.2682499   0.6372202  )
        30        Zn     tau(  30) = (   0.3748194   0.2682580   0.6373025  )
        31        Zn     tau(  31) = (   0.3750000   0.2682407   0.1548688  )
        32        Zn     tau(  32) = (   0.3750000   0.8047221   0.1548688  )
        33        Zn     tau(  33) = (   0.3749260   0.1340898   0.3920843  )
        34        Zn     tau(  34) = (   0.3749219   0.6706312   0.3920895  )
        35        Zn     tau(  35) = (   0.3748132  -0.0000171   0.6372658  )
        36        Zn     tau(  36) = (   0.3748269   0.5365047   0.6372555  )
        37        Zn     tau(  37) = (   0.8750000  -0.0000000   0.1548688  )
        38        Zn     tau(  38) = (   0.8750000   0.5364814   0.1548688  )
        39        Zn     tau(  39) = (   0.8750678  -0.1341422   0.3920958  )
        40        Zn     tau(  40) = (   0.8750850   0.4023832   0.3920848  )
        41        Zn     tau(  41) = (   0.8751774  -0.2682441   0.6372394  )
        42        Zn     tau(  42) = (   0.8751811   0.2682515   0.6373104  )
        43        Zn     tau(  43) = (   0.8750000   0.2682407   0.1548688  )
        44        Zn     tau(  44) = (   0.8750000   0.8047221   0.1548688  )
        45        Zn     tau(  45) = (   0.8750788   0.1340975   0.3920835  )
        46        Zn     tau(  46) = (   0.8750738   0.6706258   0.3920980  )
        47        Zn     tau(  47) = (   0.8751860   0.0000000   0.6372756  )
        48        Zn     tau(  48) = (   0.8751710   0.5364884   0.6372736  )

     DFT-D3 Dispersion Correction (3-body terms):
       Reference C6 values for interpolation:

         atom   Coordination number   C6
         Zn         0.000           681.04
         Zn         1.942           306.91

       Values used:

         atom   Coordination number  R0_AB[au]  C6      C8
         Zn         4.572            3.053    306.91  23930.67
         Zn         4.573            3.053    306.91  23930.67
         Zn         6.645            3.053    306.91  23930.67
         Zn         6.645            3.053    306.91  23930.67
         Zn         5.846            3.053    306.91  23930.67
         Zn         5.843            3.053    306.91  23930.67
         Zn         4.572            3.053    306.91  23930.67
         Zn         4.573            3.053    306.91  23930.67
         Zn         6.643            3.053    306.91  23930.67
         Zn         6.647            3.053    306.91  23930.67
         Zn         5.843            3.053    306.91  23930.67
         Zn         5.846            3.053    306.91  23930.67
         Zn         4.575            3.053    306.91  23930.67
         Zn         4.577            3.053    306.91  23930.67
         Zn         6.635            3.053    306.91  23930.67
         Zn         6.636            3.053    306.91  23930.67
         Zn         5.821            3.053    306.91  23930.67
         Zn         5.821            3.053    306.91  23930.67
         Zn         4.576            3.053    306.91  23930.67
         Zn         4.577            3.053    306.91  23930.67
         Zn         6.633            3.053    306.91  23930.67
         Zn         6.638            3.053    306.91  23930.67
         Zn         5.819            3.053    306.91  23930.67
         Zn         5.823            3.053    306.91  23930.67
         Zn         6.056            3.053    306.91  23930.67
         Zn         6.057            3.053    306.91  23930.67
         Zn         7.875            3.053    306.91  23930.67
         Zn         7.873            3.053    306.91  23930.67
         Zn         6.112            3.053    306.91  23930.67
         Zn         6.107            3.053    306.91  23930.67
         Zn         6.056            3.053    306.91  23930.67
         Zn         6.057            3.053    306.91  23930.67
         Zn         7.872            3.053    306.91  23930.67
         Zn         7.876            3.053    306.91  23930.67
         Zn         6.109            3.053    306.91  23930.67
         Zn         6.110            3.053    306.91  23930.67
         Zn         6.056            3.053    306.91  23930.67
         Zn         6.056            3.053    306.91  23930.67
         Zn         7.872            3.053    306.91  23930.67
         Zn         7.869            3.053    306.91  23930.67
         Zn         6.108            3.053    306.91  23930.67
         Zn         6.105            3.053    306.91  23930.67
         Zn         6.055            3.053    306.91  23930.67
         Zn         6.056            3.053    306.91  23930.67
         Zn         7.869            3.053    306.91  23930.67
         Zn         7.872            3.053    306.91  23930.67
         Zn         6.106            3.053    306.91  23930.67
         Zn         6.107            3.053    306.91  23930.67

         Molecular C6 ( Ry / a.u.^6 ) =    707110.50

   Crystallographic axes

     site n.     atom                  positions (cryst. coord.)
         1        Zn     tau(   1) = (  0.1250000  0.1666667  0.0327328  )
         2        Zn     tau(   2) = (  0.1250000  0.6666667  0.0327328  )
         3        Zn     tau(   3) = (  0.1250345  0.1960170  0.1540112  )
         4        Zn     tau(   4) = (  0.1250365  0.6960495  0.1539879  )
         5        Zn     tau(   5) = (  0.1250328  0.2125923  0.2652265  )
         6        Zn     tau(   6) = (  0.1250292  0.7126686  0.2652466  )
         7        Zn     tau(   7) = (  0.1250000  0.4166667  0.0327328  )
         8        Zn     tau(   8) = (  0.1250000  0.9166667  0.0327328  )
[...]
     atom   21 type  1   force =     0.00000000    0.00000000    0.00000000
     atom   22 type  1   force =     0.00000000    0.00000000    0.00000000
     atom   23 type  1   force =     0.00000000    0.00000000    0.00000000
     atom   24 type  1   force =     0.00000000    0.00000000    0.00000000
     atom   25 type  1   force =     0.00000000    0.00000000    0.00000000
     atom   26 type  1   force =     0.00000000    0.00000000    0.00000000
     atom   27 type  1   force =     0.00000000    0.00000000    0.00000000
     atom   28 type  1   force =     0.00000000    0.00000000    0.00000000
     atom   29 type  1   force =     0.00000000    0.00000000    0.00000000
     atom   30 type  1   force =     0.00000000    0.00000000    0.00000000
     atom   31 type  1   force =     0.00000000    0.00000000    0.00000000
     atom   32 type  1   force =     0.00000000    0.00000000    0.00000000
     atom   33 type  1   force =     0.00000000    0.00000000    0.00000000
     atom   34 type  1   force =     0.00000000    0.00000000    0.00000000
     atom   35 type  1   force =     0.00000000    0.00000000    0.00000000
     atom   36 type  1   force =     0.00000000    0.00000000    0.00000000
     atom   37 type  1   force =     0.00000000    0.00000000    0.00000000
     atom   38 type  1   force =     0.00000000    0.00000000    0.00000000
     atom   39 type  1   force =     0.00000000    0.00000000    0.00000000
     atom   40 type  1   force =     0.00000000    0.00000000    0.00000000
     atom   41 type  1   force =     0.00000000    0.00000000    0.00000000
     atom   42 type  1   force =     0.00000000    0.00000000    0.00000000
     atom   43 type  1   force =     0.00000000    0.00000000    0.00000000
     atom   44 type  1   force =     0.00000000    0.00000000    0.00000000
     atom   45 type  1   force =     0.00000000    0.00000000    0.00000000
     atom   46 type  1   force =     0.00000000    0.00000000    0.00000000
     atom   47 type  1   force =     0.00000000    0.00000000    0.00000000
     atom   48 type  1   force =     0.00000000    0.00000000    0.00000000
     The SCF correction term to forces
     atom    1 type  1   force =    -0.00000000   -0.00000000   -0.00000000
     atom    2 type  1   force =    -0.00000000    0.00000000    0.00000000
     atom    3 type  1   force =    -0.00001886   -0.00003461    0.00000018
     atom    4 type  1   force =    -0.00001939    0.00003374   -0.00000125
     atom    5 type  1   force =    -0.00000622   -0.00001928    0.00002930
     atom    6 type  1   force =    -0.00000764    0.00001958    0.00004052
     atom    7 type  1   force =    -0.00000000    0.00000000   -0.00000000
     atom    8 type  1   force =    -0.00000000   -0.00000000    0.00000000
     atom    9 type  1   force =    -0.00001925    0.00000836    0.00000349
     atom   10 type  1   force =    -0.00001768   -0.00000798   -0.00000575
     atom   11 type  1   force =    -0.00000728   -0.00001135    0.00004387
     atom   12 type  1   force =    -0.00000598    0.00001108    0.00002533
     atom   13 type  1   force =     0.00000000   -0.00000000   -0.00000000
     atom   14 type  1   force =     0.00000000    0.00000000    0.00000000
     atom   15 type  1   force =     0.00001562   -0.00003277    0.00001508
     atom   16 type  1   force =     0.00001665    0.00003210    0.00001313
     atom   17 type  1   force =     0.00000572   -0.00001811    0.00003278
     atom   18 type  1   force =     0.00000588    0.00001669    0.00004371
     atom   19 type  1   force =     0.00000000    0.00000000   -0.00000000
     atom   20 type  1   force =     0.00000000   -0.00000000   -0.00000000
     atom   21 type  1   force =     0.00001486    0.00000582    0.00001912
     atom   22 type  1   force =     0.00001543   -0.00000538    0.00000826
     atom   23 type  1   force =     0.00000529   -0.00001117    0.00004516
     atom   24 type  1   force =     0.00000549    0.00001207    0.00003103
     atom   25 type  1   force =     0.00000000   -0.00000000   -0.00000000
     atom   26 type  1   force =    -0.00000000    0.00000000   -0.00000000
     atom   27 type  1   force =    -0.00000056   -0.00002834    0.00001623
     atom   28 type  1   force =     0.00000028    0.00002957    0.00002229
     atom   29 type  1   force =     0.00000422   -0.00000477   -0.00000943
     atom   30 type  1   force =     0.00000667    0.00000430    0.00001013
     atom   31 type  1   force =     0.00000000    0.00000000   -0.00000000
     atom   32 type  1   force =    -0.00000000   -0.00000000   -0.00000000
     atom   33 type  1   force =     0.00000237   -0.00001924    0.00002440
     atom   34 type  1   force =    -0.00000254    0.00001844    0.00001498
     atom   35 type  1   force =     0.00000644   -0.00002292    0.00000281
     atom   36 type  1   force =     0.00000413    0.00002243   -0.00000178
     atom   37 type  1   force =    -0.00000000   -0.00000000   -0.00000000
     atom   38 type  1   force =    -0.00000000    0.00000000   -0.00000000
     atom   39 type  1   force =    -0.00000030   -0.00002611    0.00000139
     atom   40 type  1   force =     0.00000088    0.00002915    0.00000876
     atom   41 type  1   force =    -0.00000513   -0.00000458    0.00000458
     atom   42 type  1   force =    -0.00000562    0.00000455    0.00002308
     atom   43 type  1   force =    -0.00000000    0.00000000   -0.00000000
     atom   44 type  1   force =    -0.00000000   -0.00000000   -0.00000000
     atom   45 type  1   force =    -0.00000083   -0.00001883    0.00001129
     atom   46 type  1   force =     0.00000166    0.00001583   -0.00000025
     atom   47 type  1   force =    -0.00000659   -0.00002099    0.00001540
     atom   48 type  1   force =    -0.00000460    0.00001994    0.00001082

     DFT-D3 dispersion contribution to forces:
     atom    1 type  1   force =     0.00000012   -0.00000014    0.00159552
     atom    2 type  1   force =     0.00000011    0.00000006    0.00159882
     atom    3 type  1   force =     0.00000755   -0.00000106    0.00160693
     atom    4 type  1   force =     0.00000723    0.00000394    0.00160487
     atom    5 type  1   force =     0.00000041   -0.00000093   -0.00118846
     atom    6 type  1   force =     0.00000071    0.00000186   -0.00118931
     atom    7 type  1   force =     0.00000008    0.00000043    0.00159631
     atom    8 type  1   force =     0.00000013   -0.00000059    0.00159772
     atom    9 type  1   force =     0.00000860    0.00000032    0.00160720
     atom   10 type  1   force =     0.00000737   -0.00000223    0.00160369
     atom   11 type  1   force =     0.00000107   -0.00000035   -0.00119034
     atom   12 type  1   force =     0.00000029   -0.00000036   -0.00118781
     atom   13 type  1   force =    -0.00000041   -0.00000020    0.00158974
     atom   14 type  1   force =    -0.00000044    0.00000013    0.00159289
     atom   15 type  1   force =    -0.00000654   -0.00000149    0.00161125
     atom   16 type  1   force =    -0.00000621    0.00000377    0.00161055
     atom   17 type  1   force =    -0.00000033   -0.00000024   -0.00120112
     atom   18 type  1   force =    -0.00000043    0.00000124   -0.00120257
     atom   19 type  1   force =    -0.00000035    0.00000025    0.00159052
     atom   20 type  1   force =    -0.00000043   -0.00000038    0.00159173
     atom   21 type  1   force =    -0.00000724   -0.00000003    0.00161239
     atom   22 type  1   force =    -0.00000620   -0.00000140    0.00160903
     atom   23 type  1   force =    -0.00000068   -0.00000076   -0.00120268
     atom   24 type  1   force =    -0.00000012   -0.00000031   -0.00120113
     atom   25 type  1   force =    -0.00000347   -0.00000065    0.00274475
     atom   26 type  1   force =    -0.00000350    0.00000022    0.00274558
     atom   27 type  1   force =    -0.00001388   -0.00000157   -0.00250238
     atom   28 type  1   force =    -0.00001457    0.00000067   -0.00250370
     atom   29 type  1   force =    -0.00000992   -0.00000116   -0.00225639
     atom   30 type  1   force =    -0.00000936   -0.00000068   -0.00224882
     atom   31 type  1   force =    -0.00000352    0.00000005    0.00274447
     atom   32 type  1   force =    -0.00000347   -0.00000021    0.00274602
     atom   33 type  1   force =    -0.00001375    0.00000166   -0.00250450
     atom   34 type  1   force =    -0.00001487   -0.00000061   -0.00250131
     atom   35 type  1   force =    -0.00000895   -0.00000082   -0.00225083
     atom   36 type  1   force =    -0.00001021    0.00000235   -0.00225372
     atom   37 type  1   force =     0.00000314   -0.00000081    0.00274783
     atom   38 type  1   force =     0.00000320    0.00000039    0.00274866
     atom   39 type  1   force =     0.00001263   -0.00000128   -0.00250053
     atom   40 type  1   force =     0.00001352    0.00000159   -0.00250134
     atom   41 type  1   force =     0.00001040   -0.00000117   -0.00225481
     atom   42 type  1   force =     0.00000993   -0.00000011   -0.00224858
     atom   43 type  1   force =     0.00000312    0.00000007    0.00274767
     atom   44 type  1   force =     0.00000319   -0.00000022    0.00274915
     atom   45 type  1   force =     0.00001265    0.00000137   -0.00250202
     atom   46 type  1   force =     0.00001347   -0.00000158   -0.00249960
     atom   47 type  1   force =     0.00000936   -0.00000109   -0.00224931
     atom   48 type  1   force =     0.00001056    0.00000207   -0.00225201

     Total force =     0.000706     Total SCF correction =     0.000175

     DFT-D3 dispersion Force =     0.014264
     SCF correction compared to forces is large: reduce conv_thr to get better values

     Computing stress (Cartesian axis) and pressure

          total   stress  (Ry/bohr**3)                   (kbar)     P=      -16.56
  -0.00019333  -0.00000000   0.00000000          -28.44       -0.00        0.00
  -0.00000000  -0.00013031   0.00000000           -0.00      -19.17        0.00
   0.00000000   0.00000000  -0.00001412            0.00        0.00       -2.08

     kinetic stress (kbar)  11933.69      0.00     -0.00
                                0.00  11909.35     -0.00
                               -0.00     -0.00  11969.13

     local   stress (kbar)**********     -0.00      0.10
                               -0.00**********      0.07
                                0.10      0.071023186.96

     nonloc. stress (kbar)  -1288.51     -0.00     -0.00
                               -0.00  -1260.74      0.00
                               -0.00      0.00  -1310.08

     hartree stress (kbar) 531685.43      0.00     -0.05
                                0.00 537020.08     -0.03
                               -0.05     -0.03-477972.98

     exc-cor stress (kbar)  -6010.99      0.00     -0.00
                                0.00  -6007.63     -0.00
                               -0.00     -0.00  -6015.87

     corecor stress (kbar)      0.00      0.00      0.00
                                0.00      0.00      0.00
                                0.00      0.00      0.00

     ewald   stress (kbar) 474020.10      0.00     -0.05
                                0.00 481091.05     -0.04
                               -0.05     -0.04-549856.48

     hubbard stress (kbar)      0.00      0.00      0.00
                                0.00      0.00      0.00
                                0.00      0.00      0.00

     DFT-D   stress (kbar)     -5.90     -0.00      0.00
                               -0.00     -8.58      0.00
                                0.00      0.00     -2.77

     XDM     stress (kbar)      0.00      0.00      0.00
                                0.00      0.00      0.00
                                0.00      0.00      0.00

     dft-nl  stress (kbar)      0.00      0.00      0.00
                                0.00      0.00      0.00
                                0.00      0.00      0.00

     TS-vdW  stress (kbar)      0.00      0.00      0.00
                                0.00      0.00      0.00
                                0.00      0.00      0.00

     MDB     stress (kbar)      0.00      0.00      0.00
                                0.00      0.00      0.00
                                0.00      0.00      0.00

     3D-RISM stress (kbar)      0.00      0.00      0.00
                                0.00      0.00      0.00
                                0.00      0.00      0.00

     Energy error            =      3.9E-06 Ry
     Gradient error          =      1.9E-04 Ry/Bohr

     bfgs converged in  21 scf cycles and  20 bfgs steps
     (criteria: energy <  1.0E-05 Ry, force <  5.0E-04 Ry/Bohr)

     End of BFGS Geometry Optimization

     Final energy             =  -22154.7386825033 Ry

     File ./tmp/Zn100_3layer_relax.bfgs deleted, as requested
Begin final coordinates

ATOMIC_POSITIONS (angstrom)
Zn               1.2182900000        1.3071800000        0.7547010000    0   0   0
Zn               1.2182900000        6.5359000000        0.7547010000    0   0   0
Zn               1.2189711913       -0.0000397592        3.5626172305
Zn               1.2189249843        5.2290479765        3.5620389769
Zn               1.2185324679       -1.3073042199        6.0879044029
Zn               1.2186089721        3.9218261787        6.0880408664
Zn               1.2182900000        3.9215400000        0.7547010000    0   0   0
Zn               1.2182900000        9.1502600000        0.7547010000    0   0   0
Zn               1.2191250532        2.6144147700        3.5629043131
Zn               1.2189519114        7.8429575358        3.5614721686
Zn               1.2186624527        1.3071456528        6.0880480486
Zn               1.2185228780        6.5359648762        6.0877724841
Zn               6.0914510000        1.3071800000        0.7547010000    0   0   0
Zn               6.0914510000        6.5359000000        0.7547010000    0   0   0
Zn               6.0910280288       -0.0000821572        3.5659447041
Zn               6.0910527112        5.2290428295        3.5656213270
Zn               6.0913013724       -1.3072712118        6.0884797757
Zn               6.0912803900        3.9217811537        6.0886576786
Zn               6.0914510000        3.9215400000        0.7547010000    0   0   0
Zn               6.0914510000        9.1502600000        0.7547010000    0   0   0
Zn               6.0909304459        2.6144268680        3.5662739643
Zn               6.0910536852        7.8429697391        3.5650327352
Zn               6.0912398669        1.3071334772        6.0886158975
Zn               6.0913399193        6.5359355188        6.0885066645
Zn               3.6548710000       -0.0000000000        1.5094010000    0   0   0
Zn               3.6548710000        5.2287200000        1.5094010000    0   0   0
Zn               3.6530037229       -1.3073007711        3.7815047041
Zn               3.6528981951        3.9216727161        3.7813493599
Zn               3.6544139715       -2.6144701092        6.1552676599
Zn               3.6544474660        2.6143677947        6.1556894238
Zn               3.6548710000        2.6143600000        1.5094010000    0   0   0
Zn               3.6548710000        7.8430800000        1.5094010000    0   0   0
Zn               3.6530328386        1.3073472093        3.7813403963
Zn               3.6528180911        6.5358870807        3.7816681823
Zn               3.6545245658       -0.0001413024        6.1555692005
Zn               3.6543896302        5.2290831092        6.1553925224
Zn               8.5280310000       -0.0000000000        1.5094010000    0   0   0
Zn               8.5280310000        5.2287200000        1.5094010000    0   0   0
Zn               8.5299021864       -1.3072539723        3.7796520147
Zn               8.5300470119        3.9217089475        3.7795225631
Zn               8.5284831647       -2.6144628094        6.1537018908
Zn               8.5285105862        2.6144101217        6.1540128563
Zn               8.5280310000        2.6143600000        1.5094010000    0   0   0
Zn               8.5280310000        7.8430800000        1.5094010000    0   0   0
Zn               8.5299099877        1.3073536998        3.7794448459
Zn               8.5300497832        6.5357912199        3.7798277405
Zn               8.5284040248       -0.0001238892        6.1539228026
Zn               8.5285532268        5.2290126469        6.1537568852
End final coordinates

     Writing all to output data dir ./tmp/Zn100_3layer_relax.save/ :
     XML data file, charge density, pseudopotentials, collected wavefunctions

     General routines

     Parallel routines

   This run was terminated on:   5:44:57  29Mar2025

   JOB DONE.